288
Lattice="13.519083005276505 3.9762680028551066e-17 -4.0430281816947754e-17 2.832107032207403e-17 9.559331404516637 -2.7421228983415876e-17 -9.765279892702126e-17 -9.449974793418939e-17 36.049431398529755" Properties=species:S:1:pos:R:3 vacuum_gap_Ang=0.0 frame_index=0 pbc="T T T"
W       -0.00000000       0.00000000       1.12655590
W        2.25318050       1.59322190       1.12655590
W        2.25318050       0.00000000       3.37961833
W        4.50636100       1.59322190       3.37961833
W       -0.00000000       0.00000000       5.63261462
W        2.25318050       1.59322190       5.63261462
W        2.25318050      -0.00000000       7.88565765
W        4.50636100       1.59322190       7.88565765
W       -0.00000000       0.00000000      10.13875225
W        2.25318050       1.59322190      10.13875225
W        2.25318050      -0.00000000      12.39188965
W        4.50636100       1.59322190      12.39188965
W        4.50636100      -0.00000000      14.64501694
W        2.25318050       1.59322190      14.64501694
W        2.25318050       0.00000000      16.89815510
W       -0.00000000       1.59322190      16.89815510
W       -0.00000000       0.00000000      19.15127630
W        2.25318050       1.59322190      19.15127630
W        2.25318050      -0.00000000      21.40441446
W       -0.00000000       1.59322190      21.40441446
W       -0.00000000      -0.00000000      23.65754175
W        2.25318050       1.59322190      23.65754175
W        2.25318050       0.00000000      25.91067915
W       -0.00000000       1.59322190      25.91067915
W        4.50636100      -0.00000000      28.16377375
W        2.25318050       1.59322190      28.16377375
W        2.25318050      -0.00000000      30.41681678
W       -0.00000000       1.59322190      30.41681678
W       -0.00000000      -0.00000000      32.66981307
W        2.25318050       1.59322190      32.66981307
W        2.25318050       0.00000000      34.92287550
W       -0.00000000       1.59322190      34.92287550
W       -0.00000000       3.18644380       1.12655590
W        2.25318050       4.77966570       1.12655590
W        2.25318050       3.18644380       3.37961833
W        4.50636100       4.77966570       3.37961833
W       -0.00000000       3.18644380       5.63261462
W        2.25318050       4.77966570       5.63261462
W        2.25318050       3.18644380       7.88565765
W        4.50636100       4.77966570       7.88565765
W       -0.00000000       3.18644380      10.13875225
W        2.25318050       4.77966570      10.13875225
W        2.25318050       3.18644380      12.39188965
W        4.50636100       4.77966570      12.39188965
W        4.50636100       3.18644380      14.64501694
W        2.25318050       4.77966570      14.64501694
W        2.25318050       3.18644380      16.89815510
W       -0.00000000       4.77966570      16.89815510
W       -0.00000000       3.18644380      19.15127630
W        2.25318050       4.77966570      19.15127630
W        2.25318050       3.18644380      21.40441446
W       -0.00000000       4.77966570      21.40441446
W       -0.00000000       3.18644380      23.65754175
W        2.25318050       4.77966570      23.65754175
W        2.25318050       3.18644380      25.91067915
W       -0.00000000       4.77966570      25.91067915
W        4.50636100       3.18644380      28.16377375
W        2.25318050       4.77966570      28.16377375
W        2.25318050       3.18644380      30.41681678
W       -0.00000000       4.77966570      30.41681678
W       -0.00000000       3.18644380      32.66981307
W        2.25318050       4.77966570      32.66981307
W        2.25318050       3.18644380      34.92287550
W       -0.00000000       4.77966570      34.92287550
W       -0.00000000       6.37288760       1.12655590
W        2.25318050       7.96610950       1.12655590
W        2.25318050       6.37288760       3.37961833
W        4.50636100       7.96610950       3.37961833
W       -0.00000000       6.37288760       5.63261462
W        2.25318050       7.96610950       5.63261462
W        2.25318050       6.37288760       7.88565765
W        4.50636100       7.96610950       7.88565765
W        0.00000000       6.37288760      10.13875225
W        2.25318050       7.96610950      10.13875225
W        2.25318050       6.37288760      12.39188965
W        4.50636100       7.96610950      12.39188965
W        4.50636100       6.37288760      14.64501694
W        2.25318050       7.96610950      14.64501694
W        2.25318050       6.37288760      16.89815510
W       -0.00000000       7.96610950      16.89815510
W       -0.00000000       6.37288760      19.15127630
W        2.25318050       7.96610950      19.15127630
W        2.25318050       6.37288760      21.40441446
W       -0.00000000       7.96610950      21.40441446
W       -0.00000000       6.37288760      23.65754175
W        2.25318050       7.96610950      23.65754175
W        2.25318050       6.37288760      25.91067915
W       -0.00000000       7.96610950      25.91067915
W        4.50636100       6.37288760      28.16377375
W        2.25318050       7.96610950      28.16377375
W        2.25318050       6.37288760      30.41681678
W       -0.00000000       7.96610950      30.41681678
W       -0.00000000       6.37288760      32.66981307
W        2.25318050       7.96610950      32.66981307
W        2.25318050       6.37288760      34.92287550
W       -0.00000000       7.96610950      34.92287550
W        4.50636100      -0.00000000       1.12655590
W        6.75954150       1.59322190       1.12655590
W        6.75954150       0.00000000       3.37961833
W        9.01272200       1.59322190       3.37961833
W        4.50636100       0.00000000       5.63261462
W        6.75954150       1.59322190       5.63261462
W        6.75954150      -0.00000000       7.88565765
W        9.01272200       1.59322190       7.88565765
W        4.50636100      -0.00000000      10.13875225
W        6.75954150       1.59322190      10.13875225
W        6.75954150       0.00000000      12.39188965
W        9.01272200       1.59322190      12.39188965
W        9.01272200      -0.00000000      14.64501694
W        6.75954150       1.59322190      14.64501694
W        6.75954150       0.00000000      16.89815510
W        4.50636100       1.59322190      16.89815510
W        4.50636100      -0.00000000      19.15127630
W        6.75954150       1.59322190      19.15127630
W        6.75954150      -0.00000000      21.40441446
W        4.50636100       1.59322190      21.40441446
W        4.50636100       0.00000000      23.65754175
W        6.75954150       1.59322190      23.65754175
W        6.75954150       0.00000000      25.91067915
W        4.50636100       1.59322190      25.91067915
W        9.01272200      -0.00000000      28.16377375
W        6.75954150       1.59322190      28.16377375
W        6.75954150      -0.00000000      30.41681678
W        4.50636100       1.59322190      30.41681678
W        4.50636100       0.00000000      32.66981307
W        6.75954150       1.59322190      32.66981307
W        6.75954150      -0.00000000      34.92287550
W        4.50636100       1.59322190      34.92287550
W        4.50636100       3.18644380       1.12655590
W        6.75954150       4.77966570       1.12655590
W        6.75954150       3.18644380       3.37961833
W        9.01272200       4.77966570       3.37961833
W        4.50636100       3.18644380       5.63261462
W        6.75954150       4.77966570       5.63261462
W        6.75954150       3.18644380       7.88565765
W        9.01272200       4.77966570       7.88565765
W        4.50636100       3.18644380      10.13875225
W        6.75954150       4.77966570      10.13875225
W        6.75954150       3.18644380      12.39188965
W        9.01272200       4.77966570      12.39188965
W        9.01272200       3.18644380      14.64501694
W        6.75954150       4.77966570      14.64501694
W        6.75954150       3.18644380      16.89815510
W        4.50636100       4.77966570      16.89815510
W        4.50636100       3.18644380      19.15127630
W        6.75954150       4.77966570      19.15127630
W        6.75954150       3.18644380      21.40441446
W        4.50636100       4.77966570      21.40441446
W        4.50636100       3.18644380      23.65754175
W        6.75954150       4.77966570      23.65754175
W        6.75954150       3.18644380      25.91067915
W        4.50636100       4.77966570      25.91067915
W        9.01272200       3.18644380      28.16377375
W        6.75954150       4.77966570      28.16377375
W        6.75954150       3.18644380      30.41681678
W        4.50636100       4.77966570      30.41681678
W        4.50636100       3.18644380      32.66981307
W        6.75954150       4.77966570      32.66981307
W        6.75954150       3.18644380      34.92287550
W        4.50636100       4.77966570      34.92287550
W        4.50636100       6.37288760       1.12655590
W        6.75954150       7.96610950       1.12655590
W        6.75954150       6.37288760       3.37961833
W        9.01272200       7.96610950       3.37961833
W        4.50636100       6.37288760       5.63261462
W        6.75954150       7.96610950       5.63261462
W        6.75954150       6.37288760       7.88565765
W        9.01272200       7.96610950       7.88565765
W        4.50636100       6.37288760      10.13875225
W        6.75954150       7.96610950      10.13875225
W        6.75954150       6.37288760      12.39188965
W        9.01272200       7.96610950      12.39188965
W        9.01272200       6.37288760      14.64501694
W        6.75954150       7.96610950      14.64501694
W        6.75954150       6.37288760      16.89815510
W        4.50636100       7.96610950      16.89815510
W        4.50636100       6.37288760      19.15127630
W        6.75954150       7.96610950      19.15127630
W        6.75954150       6.37288760      21.40441446
W        4.50636100       7.96610950      21.40441446
W        4.50636100       6.37288760      23.65754175
W        6.75954150       7.96610950      23.65754175
W        6.75954150       6.37288760      25.91067915
W        4.50636100       7.96610950      25.91067915
W        9.01272200       6.37288760      28.16377375
W        6.75954150       7.96610950      28.16377375
W        6.75954150       6.37288760      30.41681678
W        4.50636100       7.96610950      30.41681678
W        4.50636100       6.37288760      32.66981307
W        6.75954150       7.96610950      32.66981307
W        6.75954150       6.37288760      34.92287550
W        4.50636100       7.96610950      34.92287550
W        9.01272200      -0.00000000       1.12655590
W       11.26590250       1.59322190       1.12655590
W       11.26590250       0.00000000       3.37961833
W       13.51908301       1.59322190       3.37961833
W        9.01272200      -0.00000000       5.63261462
W       11.26590250       1.59322190       5.63261462
W       11.26590250      -0.00000000       7.88565765
W       13.51908301       1.59322190       7.88565765
W        9.01272200      -0.00000000      10.13875225
W       11.26590250       1.59322190      10.13875225
W       11.26590250       0.00000000      12.39188965
W       13.51908301       1.59322190      12.39188965
W       13.51908301      -0.00000000      14.64501694
W       11.26590250       1.59322190      14.64501694
W       11.26590250      -0.00000000      16.89815510
W        9.01272200       1.59322190      16.89815510
W        9.01272200      -0.00000000      19.15127630
W       11.26590250       1.59322190      19.15127630
W       11.26590250       0.00000000      21.40441446
W        9.01272200       1.59322190      21.40441446
W        9.01272200       0.00000000      23.65754175
W       11.26590250       1.59322190      23.65754175
W       11.26590250       0.00000000      25.91067915
W        9.01272200       1.59322190      25.91067915
W       13.51908301       0.00000000      28.16377375
W       11.26590250       1.59322190      28.16377375
W       11.26590250      -0.00000000      30.41681678
W        9.01272200       1.59322190      30.41681678
W        9.01272200      -0.00000000      32.66981307
W       11.26590250       1.59322190      32.66981307
W       11.26590250      -0.00000000      34.92287550
W        9.01272200       1.59322190      34.92287550
W        9.01272200       3.18644380       1.12655590
W       11.26590250       4.77966570       1.12655590
W       11.26590250       3.18644380       3.37961833
W       13.51908301       4.77966570       3.37961833
W        9.01272200       3.18644380       5.63261462
W       11.26590250       4.77966570       5.63261462
W       11.26590250       3.18644380       7.88565765
W       13.51908301       4.77966570       7.88565765
W        9.01272200       3.18644380      10.13875225
W       11.26590250       4.77966570      10.13875225
W       11.26590250       3.18644380      12.39188965
W       13.51908301       4.77966570      12.39188965
W       13.51908301       3.18644380      14.64501694
W       11.26590250       4.77966570      14.64501694
W       11.26590250       3.18644380      16.89815510
W        9.01272200       4.77966570      16.89815510
W        9.01272200       3.18644380      19.15127630
W       11.26590250       4.77966570      19.15127630
W       11.26590250       3.18644380      21.40441446
W        9.01272200       4.77966570      21.40441446
W        9.01272200       3.18644380      23.65754175
W       11.26590250       4.77966570      23.65754175
W       11.26590250       3.18644380      25.91067915
W        9.01272200       4.77966570      25.91067915
W       13.51908301       3.18644380      28.16377375
W       11.26590250       4.77966570      28.16377375
W       11.26590250       3.18644380      30.41681678
W        9.01272200       4.77966570      30.41681678
W        9.01272200       3.18644380      32.66981307
W       11.26590250       4.77966570      32.66981307
W       11.26590250       3.18644380      34.92287550
W        9.01272200       4.77966570      34.92287550
W        9.01272200       6.37288760       1.12655590
W       11.26590250       7.96610950       1.12655590
W       11.26590250       6.37288760       3.37961833
W       13.51908301       7.96610950       3.37961833
W        9.01272200       6.37288760       5.63261462
W       11.26590250       7.96610950       5.63261462
W       11.26590250       6.37288760       7.88565765
W       13.51908301       7.96610950       7.88565765
W        9.01272200       6.37288760      10.13875225
W       11.26590250       7.96610950      10.13875225
W       11.26590250       6.37288760      12.39188965
W       13.51908301       7.96610950      12.39188965
W       13.51908301       6.37288760      14.64501694
W       11.26590250       7.96610950      14.64501694
W       11.26590250       6.37288760      16.89815510
W        9.01272200       7.96610950      16.89815510
W        9.01272200       6.37288760      19.15127630
W       11.26590250       7.96610950      19.15127630
W       11.26590250       6.37288760      21.40441446
W        9.01272200       7.96610950      21.40441446
W        9.01272200       6.37288760      23.65754175
W       11.26590250       7.96610950      23.65754175
W       11.26590250       6.37288760      25.91067915
W        9.01272200       7.96610950      25.91067915
W       13.51908301       6.37288760      28.16377375
W       11.26590250       7.96610950      28.16377375
W       11.26590250       6.37288760      30.41681678
W        9.01272200       7.96610950      30.41681678
W        9.01272200       6.37288760      32.66981307
W       11.26590250       7.96610950      32.66981307
W       11.26590250       6.37288760      34.92287550
W        9.01272200       7.96610950      34.92287550
288
Lattice="13.519083005276505 3.9762680028551066e-17 -4.0430281816947754e-17 2.832107032207403e-17 9.559331404516637 -2.7421228983415876e-17 -9.765279892702126e-17 -9.449974793418939e-17 36.15199550109386" Properties=species:S:1:pos:R:3 vacuum_gap_Ang=0.10256410256410256 frame_index=1 pbc="T T T"
W       -0.00000000       0.00000000       1.12655590
W        2.25318050       1.59322190       1.12655590
W        2.25318050       0.00000000       3.37961833
W        4.50636100       1.59322190       3.37961833
W       -0.00000000       0.00000000       5.63261462
W        2.25318050       1.59322190       5.63261462
W        2.25318050      -0.00000000       7.88565765
W        4.50636100       1.59322190       7.88565765
W       -0.00000000       0.00000000      10.13875225
W        2.25318050       1.59322190      10.13875225
W        2.25318050      -0.00000000      12.39188965
W        4.50636100       1.59322190      12.39188965
W        4.50636100      -0.00000000      14.64501694
W        2.25318050       1.59322190      14.64501694
W        2.25318050       0.00000000      16.89815510
W       -0.00000000       1.59322190      16.89815510
W       -0.00000000       0.00000000      19.25384041
W        2.25318050       1.59322190      19.25384041
W        2.25318050      -0.00000000      21.50697856
W       -0.00000000       1.59322190      21.50697856
W       -0.00000000      -0.00000000      23.76010585
W        2.25318050       1.59322190      23.76010585
W        2.25318050       0.00000000      26.01324325
W       -0.00000000       1.59322190      26.01324325
W        4.50636100      -0.00000000      28.26633785
W        2.25318050       1.59322190      28.26633785
W        2.25318050      -0.00000000      30.51938088
W       -0.00000000       1.59322190      30.51938088
W       -0.00000000      -0.00000000      32.77237717
W        2.25318050       1.59322190      32.77237717
W        2.25318050       0.00000000      35.02543960
W       -0.00000000       1.59322190      35.02543960
W       -0.00000000       3.18644380       1.12655590
W        2.25318050       4.77966570       1.12655590
W        2.25318050       3.18644380       3.37961833
W        4.50636100       4.77966570       3.37961833
W       -0.00000000       3.18644380       5.63261462
W        2.25318050       4.77966570       5.63261462
W        2.25318050       3.18644380       7.88565765
W        4.50636100       4.77966570       7.88565765
W       -0.00000000       3.18644380      10.13875225
W        2.25318050       4.77966570      10.13875225
W        2.25318050       3.18644380      12.39188965
W        4.50636100       4.77966570      12.39188965
W        4.50636100       3.18644380      14.64501694
W        2.25318050       4.77966570      14.64501694
W        2.25318050       3.18644380      16.89815510
W       -0.00000000       4.77966570      16.89815510
W       -0.00000000       3.18644380      19.25384041
W        2.25318050       4.77966570      19.25384041
W        2.25318050       3.18644380      21.50697856
W       -0.00000000       4.77966570      21.50697856
W       -0.00000000       3.18644380      23.76010585
W        2.25318050       4.77966570      23.76010585
W        2.25318050       3.18644380      26.01324325
W       -0.00000000       4.77966570      26.01324325
W        4.50636100       3.18644380      28.26633785
W        2.25318050       4.77966570      28.26633785
W        2.25318050       3.18644380      30.51938088
W       -0.00000000       4.77966570      30.51938088
W       -0.00000000       3.18644380      32.77237717
W        2.25318050       4.77966570      32.77237717
W        2.25318050       3.18644380      35.02543960
W       -0.00000000       4.77966570      35.02543960
W       -0.00000000       6.37288760       1.12655590
W        2.25318050       7.96610950       1.12655590
W        2.25318050       6.37288760       3.37961833
W        4.50636100       7.96610950       3.37961833
W       -0.00000000       6.37288760       5.63261462
W        2.25318050       7.96610950       5.63261462
W        2.25318050       6.37288760       7.88565765
W        4.50636100       7.96610950       7.88565765
W        0.00000000       6.37288760      10.13875225
W        2.25318050       7.96610950      10.13875225
W        2.25318050       6.37288760      12.39188965
W        4.50636100       7.96610950      12.39188965
W        4.50636100       6.37288760      14.64501694
W        2.25318050       7.96610950      14.64501694
W        2.25318050       6.37288760      16.89815510
W       -0.00000000       7.96610950      16.89815510
W       -0.00000000       6.37288760      19.25384041
W        2.25318050       7.96610950      19.25384041
W        2.25318050       6.37288760      21.50697856
W       -0.00000000       7.96610950      21.50697856
W       -0.00000000       6.37288760      23.76010585
W        2.25318050       7.96610950      23.76010585
W        2.25318050       6.37288760      26.01324325
W       -0.00000000       7.96610950      26.01324325
W        4.50636100       6.37288760      28.26633785
W        2.25318050       7.96610950      28.26633785
W        2.25318050       6.37288760      30.51938088
W       -0.00000000       7.96610950      30.51938088
W       -0.00000000       6.37288760      32.77237717
W        2.25318050       7.96610950      32.77237717
W        2.25318050       6.37288760      35.02543960
W       -0.00000000       7.96610950      35.02543960
W        4.50636100      -0.00000000       1.12655590
W        6.75954150       1.59322190       1.12655590
W        6.75954150       0.00000000       3.37961833
W        9.01272200       1.59322190       3.37961833
W        4.50636100       0.00000000       5.63261462
W        6.75954150       1.59322190       5.63261462
W        6.75954150      -0.00000000       7.88565765
W        9.01272200       1.59322190       7.88565765
W        4.50636100      -0.00000000      10.13875225
W        6.75954150       1.59322190      10.13875225
W        6.75954150       0.00000000      12.39188965
W        9.01272200       1.59322190      12.39188965
W        9.01272200      -0.00000000      14.64501694
W        6.75954150       1.59322190      14.64501694
W        6.75954150       0.00000000      16.89815510
W        4.50636100       1.59322190      16.89815510
W        4.50636100      -0.00000000      19.25384041
W        6.75954150       1.59322190      19.25384041
W        6.75954150      -0.00000000      21.50697856
W        4.50636100       1.59322190      21.50697856
W        4.50636100       0.00000000      23.76010585
W        6.75954150       1.59322190      23.76010585
W        6.75954150       0.00000000      26.01324325
W        4.50636100       1.59322190      26.01324325
W        9.01272200      -0.00000000      28.26633785
W        6.75954150       1.59322190      28.26633785
W        6.75954150      -0.00000000      30.51938088
W        4.50636100       1.59322190      30.51938088
W        4.50636100       0.00000000      32.77237717
W        6.75954150       1.59322190      32.77237717
W        6.75954150      -0.00000000      35.02543960
W        4.50636100       1.59322190      35.02543960
W        4.50636100       3.18644380       1.12655590
W        6.75954150       4.77966570       1.12655590
W        6.75954150       3.18644380       3.37961833
W        9.01272200       4.77966570       3.37961833
W        4.50636100       3.18644380       5.63261462
W        6.75954150       4.77966570       5.63261462
W        6.75954150       3.18644380       7.88565765
W        9.01272200       4.77966570       7.88565765
W        4.50636100       3.18644380      10.13875225
W        6.75954150       4.77966570      10.13875225
W        6.75954150       3.18644380      12.39188965
W        9.01272200       4.77966570      12.39188965
W        9.01272200       3.18644380      14.64501694
W        6.75954150       4.77966570      14.64501694
W        6.75954150       3.18644380      16.89815510
W        4.50636100       4.77966570      16.89815510
W        4.50636100       3.18644380      19.25384041
W        6.75954150       4.77966570      19.25384041
W        6.75954150       3.18644380      21.50697856
W        4.50636100       4.77966570      21.50697856
W        4.50636100       3.18644380      23.76010585
W        6.75954150       4.77966570      23.76010585
W        6.75954150       3.18644380      26.01324325
W        4.50636100       4.77966570      26.01324325
W        9.01272200       3.18644380      28.26633785
W        6.75954150       4.77966570      28.26633785
W        6.75954150       3.18644380      30.51938088
W        4.50636100       4.77966570      30.51938088
W        4.50636100       3.18644380      32.77237717
W        6.75954150       4.77966570      32.77237717
W        6.75954150       3.18644380      35.02543960
W        4.50636100       4.77966570      35.02543960
W        4.50636100       6.37288760       1.12655590
W        6.75954150       7.96610950       1.12655590
W        6.75954150       6.37288760       3.37961833
W        9.01272200       7.96610950       3.37961833
W        4.50636100       6.37288760       5.63261462
W        6.75954150       7.96610950       5.63261462
W        6.75954150       6.37288760       7.88565765
W        9.01272200       7.96610950       7.88565765
W        4.50636100       6.37288760      10.13875225
W        6.75954150       7.96610950      10.13875225
W        6.75954150       6.37288760      12.39188965
W        9.01272200       7.96610950      12.39188965
W        9.01272200       6.37288760      14.64501694
W        6.75954150       7.96610950      14.64501694
W        6.75954150       6.37288760      16.89815510
W        4.50636100       7.96610950      16.89815510
W        4.50636100       6.37288760      19.25384041
W        6.75954150       7.96610950      19.25384041
W        6.75954150       6.37288760      21.50697856
W        4.50636100       7.96610950      21.50697856
W        4.50636100       6.37288760      23.76010585
W        6.75954150       7.96610950      23.76010585
W        6.75954150       6.37288760      26.01324325
W        4.50636100       7.96610950      26.01324325
W        9.01272200       6.37288760      28.26633785
W        6.75954150       7.96610950      28.26633785
W        6.75954150       6.37288760      30.51938088
W        4.50636100       7.96610950      30.51938088
W        4.50636100       6.37288760      32.77237717
W        6.75954150       7.96610950      32.77237717
W        6.75954150       6.37288760      35.02543960
W        4.50636100       7.96610950      35.02543960
W        9.01272200      -0.00000000       1.12655590
W       11.26590250       1.59322190       1.12655590
W       11.26590250       0.00000000       3.37961833
W       13.51908301       1.59322190       3.37961833
W        9.01272200      -0.00000000       5.63261462
W       11.26590250       1.59322190       5.63261462
W       11.26590250      -0.00000000       7.88565765
W       13.51908301       1.59322190       7.88565765
W        9.01272200      -0.00000000      10.13875225
W       11.26590250       1.59322190      10.13875225
W       11.26590250       0.00000000      12.39188965
W       13.51908301       1.59322190      12.39188965
W       13.51908301      -0.00000000      14.64501694
W       11.26590250       1.59322190      14.64501694
W       11.26590250      -0.00000000      16.89815510
W        9.01272200       1.59322190      16.89815510
W        9.01272200      -0.00000000      19.25384041
W       11.26590250       1.59322190      19.25384041
W       11.26590250       0.00000000      21.50697856
W        9.01272200       1.59322190      21.50697856
W        9.01272200       0.00000000      23.76010585
W       11.26590250       1.59322190      23.76010585
W       11.26590250       0.00000000      26.01324325
W        9.01272200       1.59322190      26.01324325
W       13.51908301       0.00000000      28.26633785
W       11.26590250       1.59322190      28.26633785
W       11.26590250      -0.00000000      30.51938088
W        9.01272200       1.59322190      30.51938088
W        9.01272200      -0.00000000      32.77237717
W       11.26590250       1.59322190      32.77237717
W       11.26590250      -0.00000000      35.02543960
W        9.01272200       1.59322190      35.02543960
W        9.01272200       3.18644380       1.12655590
W       11.26590250       4.77966570       1.12655590
W       11.26590250       3.18644380       3.37961833
W       13.51908301       4.77966570       3.37961833
W        9.01272200       3.18644380       5.63261462
W       11.26590250       4.77966570       5.63261462
W       11.26590250       3.18644380       7.88565765
W       13.51908301       4.77966570       7.88565765
W        9.01272200       3.18644380      10.13875225
W       11.26590250       4.77966570      10.13875225
W       11.26590250       3.18644380      12.39188965
W       13.51908301       4.77966570      12.39188965
W       13.51908301       3.18644380      14.64501694
W       11.26590250       4.77966570      14.64501694
W       11.26590250       3.18644380      16.89815510
W        9.01272200       4.77966570      16.89815510
W        9.01272200       3.18644380      19.25384041
W       11.26590250       4.77966570      19.25384041
W       11.26590250       3.18644380      21.50697856
W        9.01272200       4.77966570      21.50697856
W        9.01272200       3.18644380      23.76010585
W       11.26590250       4.77966570      23.76010585
W       11.26590250       3.18644380      26.01324325
W        9.01272200       4.77966570      26.01324325
W       13.51908301       3.18644380      28.26633785
W       11.26590250       4.77966570      28.26633785
W       11.26590250       3.18644380      30.51938088
W        9.01272200       4.77966570      30.51938088
W        9.01272200       3.18644380      32.77237717
W       11.26590250       4.77966570      32.77237717
W       11.26590250       3.18644380      35.02543960
W        9.01272200       4.77966570      35.02543960
W        9.01272200       6.37288760       1.12655590
W       11.26590250       7.96610950       1.12655590
W       11.26590250       6.37288760       3.37961833
W       13.51908301       7.96610950       3.37961833
W        9.01272200       6.37288760       5.63261462
W       11.26590250       7.96610950       5.63261462
W       11.26590250       6.37288760       7.88565765
W       13.51908301       7.96610950       7.88565765
W        9.01272200       6.37288760      10.13875225
W       11.26590250       7.96610950      10.13875225
W       11.26590250       6.37288760      12.39188965
W       13.51908301       7.96610950      12.39188965
W       13.51908301       6.37288760      14.64501694
W       11.26590250       7.96610950      14.64501694
W       11.26590250       6.37288760      16.89815510
W        9.01272200       7.96610950      16.89815510
W        9.01272200       6.37288760      19.25384041
W       11.26590250       7.96610950      19.25384041
W       11.26590250       6.37288760      21.50697856
W        9.01272200       7.96610950      21.50697856
W        9.01272200       6.37288760      23.76010585
W       11.26590250       7.96610950      23.76010585
W       11.26590250       6.37288760      26.01324325
W        9.01272200       7.96610950      26.01324325
W       13.51908301       6.37288760      28.26633785
W       11.26590250       7.96610950      28.26633785
W       11.26590250       6.37288760      30.51938088
W        9.01272200       7.96610950      30.51938088
W        9.01272200       6.37288760      32.77237717
W       11.26590250       7.96610950      32.77237717
W       11.26590250       6.37288760      35.02543960
W        9.01272200       7.96610950      35.02543960
288
Lattice="13.519083005276505 3.9762680028551066e-17 -4.0430281816947754e-17 2.832107032207403e-17 9.559331404516637 -2.7421228983415876e-17 -9.765279892702126e-17 -9.449974793418939e-17 36.25455960365796" Properties=species:S:1:pos:R:3 vacuum_gap_Ang=0.20512820512820512 frame_index=2 pbc="T T T"
W       -0.00000000       0.00000000       1.12655590
W        2.25318050       1.59322190       1.12655590
W        2.25318050       0.00000000       3.37961833
W        4.50636100       1.59322190       3.37961833
W       -0.00000000       0.00000000       5.63261462
W        2.25318050       1.59322190       5.63261462
W        2.25318050      -0.00000000       7.88565765
W        4.50636100       1.59322190       7.88565765
W       -0.00000000       0.00000000      10.13875225
W        2.25318050       1.59322190      10.13875225
W        2.25318050      -0.00000000      12.39188965
W        4.50636100       1.59322190      12.39188965
W        4.50636100      -0.00000000      14.64501694
W        2.25318050       1.59322190      14.64501694
W        2.25318050       0.00000000      16.89815510
W       -0.00000000       1.59322190      16.89815510
W       -0.00000000       0.00000000      19.35640451
W        2.25318050       1.59322190      19.35640451
W        2.25318050      -0.00000000      21.60954266
W       -0.00000000       1.59322190      21.60954266
W       -0.00000000      -0.00000000      23.86266996
W        2.25318050       1.59322190      23.86266996
W        2.25318050       0.00000000      26.11580735
W       -0.00000000       1.59322190      26.11580735
W        4.50636100      -0.00000000      28.36890195
W        2.25318050       1.59322190      28.36890195
W        2.25318050      -0.00000000      30.62194498
W       -0.00000000       1.59322190      30.62194498
W       -0.00000000      -0.00000000      32.87494127
W        2.25318050       1.59322190      32.87494127
W        2.25318050       0.00000000      35.12800371
W       -0.00000000       1.59322190      35.12800371
W       -0.00000000       3.18644380       1.12655590
W        2.25318050       4.77966570       1.12655590
W        2.25318050       3.18644380       3.37961833
W        4.50636100       4.77966570       3.37961833
W       -0.00000000       3.18644380       5.63261462
W        2.25318050       4.77966570       5.63261462
W        2.25318050       3.18644380       7.88565765
W        4.50636100       4.77966570       7.88565765
W       -0.00000000       3.18644380      10.13875225
W        2.25318050       4.77966570      10.13875225
W        2.25318050       3.18644380      12.39188965
W        4.50636100       4.77966570      12.39188965
W        4.50636100       3.18644380      14.64501694
W        2.25318050       4.77966570      14.64501694
W        2.25318050       3.18644380      16.89815510
W       -0.00000000       4.77966570      16.89815510
W       -0.00000000       3.18644380      19.35640451
W        2.25318050       4.77966570      19.35640451
W        2.25318050       3.18644380      21.60954266
W       -0.00000000       4.77966570      21.60954266
W       -0.00000000       3.18644380      23.86266996
W        2.25318050       4.77966570      23.86266996
W        2.25318050       3.18644380      26.11580735
W       -0.00000000       4.77966570      26.11580735
W        4.50636100       3.18644380      28.36890195
W        2.25318050       4.77966570      28.36890195
W        2.25318050       3.18644380      30.62194498
W       -0.00000000       4.77966570      30.62194498
W       -0.00000000       3.18644380      32.87494127
W        2.25318050       4.77966570      32.87494127
W        2.25318050       3.18644380      35.12800371
W       -0.00000000       4.77966570      35.12800371
W       -0.00000000       6.37288760       1.12655590
W        2.25318050       7.96610950       1.12655590
W        2.25318050       6.37288760       3.37961833
W        4.50636100       7.96610950       3.37961833
W       -0.00000000       6.37288760       5.63261462
W        2.25318050       7.96610950       5.63261462
W        2.25318050       6.37288760       7.88565765
W        4.50636100       7.96610950       7.88565765
W        0.00000000       6.37288760      10.13875225
W        2.25318050       7.96610950      10.13875225
W        2.25318050       6.37288760      12.39188965
W        4.50636100       7.96610950      12.39188965
W        4.50636100       6.37288760      14.64501694
W        2.25318050       7.96610950      14.64501694
W        2.25318050       6.37288760      16.89815510
W       -0.00000000       7.96610950      16.89815510
W       -0.00000000       6.37288760      19.35640451
W        2.25318050       7.96610950      19.35640451
W        2.25318050       6.37288760      21.60954266
W       -0.00000000       7.96610950      21.60954266
W       -0.00000000       6.37288760      23.86266996
W        2.25318050       7.96610950      23.86266996
W        2.25318050       6.37288760      26.11580735
W       -0.00000000       7.96610950      26.11580735
W        4.50636100       6.37288760      28.36890195
W        2.25318050       7.96610950      28.36890195
W        2.25318050       6.37288760      30.62194498
W       -0.00000000       7.96610950      30.62194498
W       -0.00000000       6.37288760      32.87494127
W        2.25318050       7.96610950      32.87494127
W        2.25318050       6.37288760      35.12800371
W       -0.00000000       7.96610950      35.12800371
W        4.50636100      -0.00000000       1.12655590
W        6.75954150       1.59322190       1.12655590
W        6.75954150       0.00000000       3.37961833
W        9.01272200       1.59322190       3.37961833
W        4.50636100       0.00000000       5.63261462
W        6.75954150       1.59322190       5.63261462
W        6.75954150      -0.00000000       7.88565765
W        9.01272200       1.59322190       7.88565765
W        4.50636100      -0.00000000      10.13875225
W        6.75954150       1.59322190      10.13875225
W        6.75954150       0.00000000      12.39188965
W        9.01272200       1.59322190      12.39188965
W        9.01272200      -0.00000000      14.64501694
W        6.75954150       1.59322190      14.64501694
W        6.75954150       0.00000000      16.89815510
W        4.50636100       1.59322190      16.89815510
W        4.50636100      -0.00000000      19.35640451
W        6.75954150       1.59322190      19.35640451
W        6.75954150      -0.00000000      21.60954266
W        4.50636100       1.59322190      21.60954266
W        4.50636100       0.00000000      23.86266996
W        6.75954150       1.59322190      23.86266996
W        6.75954150       0.00000000      26.11580735
W        4.50636100       1.59322190      26.11580735
W        9.01272200      -0.00000000      28.36890195
W        6.75954150       1.59322190      28.36890195
W        6.75954150      -0.00000000      30.62194498
W        4.50636100       1.59322190      30.62194498
W        4.50636100       0.00000000      32.87494127
W        6.75954150       1.59322190      32.87494127
W        6.75954150      -0.00000000      35.12800371
W        4.50636100       1.59322190      35.12800371
W        4.50636100       3.18644380       1.12655590
W        6.75954150       4.77966570       1.12655590
W        6.75954150       3.18644380       3.37961833
W        9.01272200       4.77966570       3.37961833
W        4.50636100       3.18644380       5.63261462
W        6.75954150       4.77966570       5.63261462
W        6.75954150       3.18644380       7.88565765
W        9.01272200       4.77966570       7.88565765
W        4.50636100       3.18644380      10.13875225
W        6.75954150       4.77966570      10.13875225
W        6.75954150       3.18644380      12.39188965
W        9.01272200       4.77966570      12.39188965
W        9.01272200       3.18644380      14.64501694
W        6.75954150       4.77966570      14.64501694
W        6.75954150       3.18644380      16.89815510
W        4.50636100       4.77966570      16.89815510
W        4.50636100       3.18644380      19.35640451
W        6.75954150       4.77966570      19.35640451
W        6.75954150       3.18644380      21.60954266
W        4.50636100       4.77966570      21.60954266
W        4.50636100       3.18644380      23.86266996
W        6.75954150       4.77966570      23.86266996
W        6.75954150       3.18644380      26.11580735
W        4.50636100       4.77966570      26.11580735
W        9.01272200       3.18644380      28.36890195
W        6.75954150       4.77966570      28.36890195
W        6.75954150       3.18644380      30.62194498
W        4.50636100       4.77966570      30.62194498
W        4.50636100       3.18644380      32.87494127
W        6.75954150       4.77966570      32.87494127
W        6.75954150       3.18644380      35.12800371
W        4.50636100       4.77966570      35.12800371
W        4.50636100       6.37288760       1.12655590
W        6.75954150       7.96610950       1.12655590
W        6.75954150       6.37288760       3.37961833
W        9.01272200       7.96610950       3.37961833
W        4.50636100       6.37288760       5.63261462
W        6.75954150       7.96610950       5.63261462
W        6.75954150       6.37288760       7.88565765
W        9.01272200       7.96610950       7.88565765
W        4.50636100       6.37288760      10.13875225
W        6.75954150       7.96610950      10.13875225
W        6.75954150       6.37288760      12.39188965
W        9.01272200       7.96610950      12.39188965
W        9.01272200       6.37288760      14.64501694
W        6.75954150       7.96610950      14.64501694
W        6.75954150       6.37288760      16.89815510
W        4.50636100       7.96610950      16.89815510
W        4.50636100       6.37288760      19.35640451
W        6.75954150       7.96610950      19.35640451
W        6.75954150       6.37288760      21.60954266
W        4.50636100       7.96610950      21.60954266
W        4.50636100       6.37288760      23.86266996
W        6.75954150       7.96610950      23.86266996
W        6.75954150       6.37288760      26.11580735
W        4.50636100       7.96610950      26.11580735
W        9.01272200       6.37288760      28.36890195
W        6.75954150       7.96610950      28.36890195
W        6.75954150       6.37288760      30.62194498
W        4.50636100       7.96610950      30.62194498
W        4.50636100       6.37288760      32.87494127
W        6.75954150       7.96610950      32.87494127
W        6.75954150       6.37288760      35.12800371
W        4.50636100       7.96610950      35.12800371
W        9.01272200      -0.00000000       1.12655590
W       11.26590250       1.59322190       1.12655590
W       11.26590250       0.00000000       3.37961833
W       13.51908301       1.59322190       3.37961833
W        9.01272200      -0.00000000       5.63261462
W       11.26590250       1.59322190       5.63261462
W       11.26590250      -0.00000000       7.88565765
W       13.51908301       1.59322190       7.88565765
W        9.01272200      -0.00000000      10.13875225
W       11.26590250       1.59322190      10.13875225
W       11.26590250       0.00000000      12.39188965
W       13.51908301       1.59322190      12.39188965
W       13.51908301      -0.00000000      14.64501694
W       11.26590250       1.59322190      14.64501694
W       11.26590250      -0.00000000      16.89815510
W        9.01272200       1.59322190      16.89815510
W        9.01272200      -0.00000000      19.35640451
W       11.26590250       1.59322190      19.35640451
W       11.26590250       0.00000000      21.60954266
W        9.01272200       1.59322190      21.60954266
W        9.01272200       0.00000000      23.86266996
W       11.26590250       1.59322190      23.86266996
W       11.26590250       0.00000000      26.11580735
W        9.01272200       1.59322190      26.11580735
W       13.51908301       0.00000000      28.36890195
W       11.26590250       1.59322190      28.36890195
W       11.26590250      -0.00000000      30.62194498
W        9.01272200       1.59322190      30.62194498
W        9.01272200      -0.00000000      32.87494127
W       11.26590250       1.59322190      32.87494127
W       11.26590250      -0.00000000      35.12800371
W        9.01272200       1.59322190      35.12800371
W        9.01272200       3.18644380       1.12655590
W       11.26590250       4.77966570       1.12655590
W       11.26590250       3.18644380       3.37961833
W       13.51908301       4.77966570       3.37961833
W        9.01272200       3.18644380       5.63261462
W       11.26590250       4.77966570       5.63261462
W       11.26590250       3.18644380       7.88565765
W       13.51908301       4.77966570       7.88565765
W        9.01272200       3.18644380      10.13875225
W       11.26590250       4.77966570      10.13875225
W       11.26590250       3.18644380      12.39188965
W       13.51908301       4.77966570      12.39188965
W       13.51908301       3.18644380      14.64501694
W       11.26590250       4.77966570      14.64501694
W       11.26590250       3.18644380      16.89815510
W        9.01272200       4.77966570      16.89815510
W        9.01272200       3.18644380      19.35640451
W       11.26590250       4.77966570      19.35640451
W       11.26590250       3.18644380      21.60954266
W        9.01272200       4.77966570      21.60954266
W        9.01272200       3.18644380      23.86266996
W       11.26590250       4.77966570      23.86266996
W       11.26590250       3.18644380      26.11580735
W        9.01272200       4.77966570      26.11580735
W       13.51908301       3.18644380      28.36890195
W       11.26590250       4.77966570      28.36890195
W       11.26590250       3.18644380      30.62194498
W        9.01272200       4.77966570      30.62194498
W        9.01272200       3.18644380      32.87494127
W       11.26590250       4.77966570      32.87494127
W       11.26590250       3.18644380      35.12800371
W        9.01272200       4.77966570      35.12800371
W        9.01272200       6.37288760       1.12655590
W       11.26590250       7.96610950       1.12655590
W       11.26590250       6.37288760       3.37961833
W       13.51908301       7.96610950       3.37961833
W        9.01272200       6.37288760       5.63261462
W       11.26590250       7.96610950       5.63261462
W       11.26590250       6.37288760       7.88565765
W       13.51908301       7.96610950       7.88565765
W        9.01272200       6.37288760      10.13875225
W       11.26590250       7.96610950      10.13875225
W       11.26590250       6.37288760      12.39188965
W       13.51908301       7.96610950      12.39188965
W       13.51908301       6.37288760      14.64501694
W       11.26590250       7.96610950      14.64501694
W       11.26590250       6.37288760      16.89815510
W        9.01272200       7.96610950      16.89815510
W        9.01272200       6.37288760      19.35640451
W       11.26590250       7.96610950      19.35640451
W       11.26590250       6.37288760      21.60954266
W        9.01272200       7.96610950      21.60954266
W        9.01272200       6.37288760      23.86266996
W       11.26590250       7.96610950      23.86266996
W       11.26590250       6.37288760      26.11580735
W        9.01272200       7.96610950      26.11580735
W       13.51908301       6.37288760      28.36890195
W       11.26590250       7.96610950      28.36890195
W       11.26590250       6.37288760      30.62194498
W        9.01272200       7.96610950      30.62194498
W        9.01272200       6.37288760      32.87494127
W       11.26590250       7.96610950      32.87494127
W       11.26590250       6.37288760      35.12800371
W        9.01272200       7.96610950      35.12800371
288
Lattice="13.519083005276505 3.9762680028551066e-17 -4.0430281816947754e-17 2.832107032207403e-17 9.559331404516637 -2.7421228983415876e-17 -9.765279892702126e-17 -9.449974793418939e-17 36.35712370622206" Properties=species:S:1:pos:R:3 vacuum_gap_Ang=0.3076923076923077 frame_index=3 pbc="T T T"
W       -0.00000000       0.00000000       1.12655590
W        2.25318050       1.59322190       1.12655590
W        2.25318050       0.00000000       3.37961833
W        4.50636100       1.59322190       3.37961833
W       -0.00000000       0.00000000       5.63261462
W        2.25318050       1.59322190       5.63261462
W        2.25318050      -0.00000000       7.88565765
W        4.50636100       1.59322190       7.88565765
W       -0.00000000       0.00000000      10.13875225
W        2.25318050       1.59322190      10.13875225
W        2.25318050      -0.00000000      12.39188965
W        4.50636100       1.59322190      12.39188965
W        4.50636100      -0.00000000      14.64501694
W        2.25318050       1.59322190      14.64501694
W        2.25318050       0.00000000      16.89815510
W       -0.00000000       1.59322190      16.89815510
W       -0.00000000       0.00000000      19.45896861
W        2.25318050       1.59322190      19.45896861
W        2.25318050      -0.00000000      21.71210676
W       -0.00000000       1.59322190      21.71210676
W       -0.00000000      -0.00000000      23.96523406
W        2.25318050       1.59322190      23.96523406
W        2.25318050       0.00000000      26.21837145
W       -0.00000000       1.59322190      26.21837145
W        4.50636100      -0.00000000      28.47146606
W        2.25318050       1.59322190      28.47146606
W        2.25318050      -0.00000000      30.72450908
W       -0.00000000       1.59322190      30.72450908
W       -0.00000000      -0.00000000      32.97750537
W        2.25318050       1.59322190      32.97750537
W        2.25318050       0.00000000      35.23056781
W       -0.00000000       1.59322190      35.23056781
W       -0.00000000       3.18644380       1.12655590
W        2.25318050       4.77966570       1.12655590
W        2.25318050       3.18644380       3.37961833
W        4.50636100       4.77966570       3.37961833
W       -0.00000000       3.18644380       5.63261462
W        2.25318050       4.77966570       5.63261462
W        2.25318050       3.18644380       7.88565765
W        4.50636100       4.77966570       7.88565765
W       -0.00000000       3.18644380      10.13875225
W        2.25318050       4.77966570      10.13875225
W        2.25318050       3.18644380      12.39188965
W        4.50636100       4.77966570      12.39188965
W        4.50636100       3.18644380      14.64501694
W        2.25318050       4.77966570      14.64501694
W        2.25318050       3.18644380      16.89815510
W       -0.00000000       4.77966570      16.89815510
W       -0.00000000       3.18644380      19.45896861
W        2.25318050       4.77966570      19.45896861
W        2.25318050       3.18644380      21.71210676
W       -0.00000000       4.77966570      21.71210676
W       -0.00000000       3.18644380      23.96523406
W        2.25318050       4.77966570      23.96523406
W        2.25318050       3.18644380      26.21837145
W       -0.00000000       4.77966570      26.21837145
W        4.50636100       3.18644380      28.47146606
W        2.25318050       4.77966570      28.47146606
W        2.25318050       3.18644380      30.72450908
W       -0.00000000       4.77966570      30.72450908
W       -0.00000000       3.18644380      32.97750537
W        2.25318050       4.77966570      32.97750537
W        2.25318050       3.18644380      35.23056781
W       -0.00000000       4.77966570      35.23056781
W       -0.00000000       6.37288760       1.12655590
W        2.25318050       7.96610950       1.12655590
W        2.25318050       6.37288760       3.37961833
W        4.50636100       7.96610950       3.37961833
W       -0.00000000       6.37288760       5.63261462
W        2.25318050       7.96610950       5.63261462
W        2.25318050       6.37288760       7.88565765
W        4.50636100       7.96610950       7.88565765
W        0.00000000       6.37288760      10.13875225
W        2.25318050       7.96610950      10.13875225
W        2.25318050       6.37288760      12.39188965
W        4.50636100       7.96610950      12.39188965
W        4.50636100       6.37288760      14.64501694
W        2.25318050       7.96610950      14.64501694
W        2.25318050       6.37288760      16.89815510
W       -0.00000000       7.96610950      16.89815510
W       -0.00000000       6.37288760      19.45896861
W        2.25318050       7.96610950      19.45896861
W        2.25318050       6.37288760      21.71210676
W       -0.00000000       7.96610950      21.71210676
W       -0.00000000       6.37288760      23.96523406
W        2.25318050       7.96610950      23.96523406
W        2.25318050       6.37288760      26.21837145
W       -0.00000000       7.96610950      26.21837145
W        4.50636100       6.37288760      28.47146606
W        2.25318050       7.96610950      28.47146606
W        2.25318050       6.37288760      30.72450908
W       -0.00000000       7.96610950      30.72450908
W       -0.00000000       6.37288760      32.97750537
W        2.25318050       7.96610950      32.97750537
W        2.25318050       6.37288760      35.23056781
W       -0.00000000       7.96610950      35.23056781
W        4.50636100      -0.00000000       1.12655590
W        6.75954150       1.59322190       1.12655590
W        6.75954150       0.00000000       3.37961833
W        9.01272200       1.59322190       3.37961833
W        4.50636100       0.00000000       5.63261462
W        6.75954150       1.59322190       5.63261462
W        6.75954150      -0.00000000       7.88565765
W        9.01272200       1.59322190       7.88565765
W        4.50636100      -0.00000000      10.13875225
W        6.75954150       1.59322190      10.13875225
W        6.75954150       0.00000000      12.39188965
W        9.01272200       1.59322190      12.39188965
W        9.01272200      -0.00000000      14.64501694
W        6.75954150       1.59322190      14.64501694
W        6.75954150       0.00000000      16.89815510
W        4.50636100       1.59322190      16.89815510
W        4.50636100      -0.00000000      19.45896861
W        6.75954150       1.59322190      19.45896861
W        6.75954150      -0.00000000      21.71210676
W        4.50636100       1.59322190      21.71210676
W        4.50636100       0.00000000      23.96523406
W        6.75954150       1.59322190      23.96523406
W        6.75954150       0.00000000      26.21837145
W        4.50636100       1.59322190      26.21837145
W        9.01272200      -0.00000000      28.47146606
W        6.75954150       1.59322190      28.47146606
W        6.75954150      -0.00000000      30.72450908
W        4.50636100       1.59322190      30.72450908
W        4.50636100       0.00000000      32.97750537
W        6.75954150       1.59322190      32.97750537
W        6.75954150      -0.00000000      35.23056781
W        4.50636100       1.59322190      35.23056781
W        4.50636100       3.18644380       1.12655590
W        6.75954150       4.77966570       1.12655590
W        6.75954150       3.18644380       3.37961833
W        9.01272200       4.77966570       3.37961833
W        4.50636100       3.18644380       5.63261462
W        6.75954150       4.77966570       5.63261462
W        6.75954150       3.18644380       7.88565765
W        9.01272200       4.77966570       7.88565765
W        4.50636100       3.18644380      10.13875225
W        6.75954150       4.77966570      10.13875225
W        6.75954150       3.18644380      12.39188965
W        9.01272200       4.77966570      12.39188965
W        9.01272200       3.18644380      14.64501694
W        6.75954150       4.77966570      14.64501694
W        6.75954150       3.18644380      16.89815510
W        4.50636100       4.77966570      16.89815510
W        4.50636100       3.18644380      19.45896861
W        6.75954150       4.77966570      19.45896861
W        6.75954150       3.18644380      21.71210676
W        4.50636100       4.77966570      21.71210676
W        4.50636100       3.18644380      23.96523406
W        6.75954150       4.77966570      23.96523406
W        6.75954150       3.18644380      26.21837145
W        4.50636100       4.77966570      26.21837145
W        9.01272200       3.18644380      28.47146606
W        6.75954150       4.77966570      28.47146606
W        6.75954150       3.18644380      30.72450908
W        4.50636100       4.77966570      30.72450908
W        4.50636100       3.18644380      32.97750537
W        6.75954150       4.77966570      32.97750537
W        6.75954150       3.18644380      35.23056781
W        4.50636100       4.77966570      35.23056781
W        4.50636100       6.37288760       1.12655590
W        6.75954150       7.96610950       1.12655590
W        6.75954150       6.37288760       3.37961833
W        9.01272200       7.96610950       3.37961833
W        4.50636100       6.37288760       5.63261462
W        6.75954150       7.96610950       5.63261462
W        6.75954150       6.37288760       7.88565765
W        9.01272200       7.96610950       7.88565765
W        4.50636100       6.37288760      10.13875225
W        6.75954150       7.96610950      10.13875225
W        6.75954150       6.37288760      12.39188965
W        9.01272200       7.96610950      12.39188965
W        9.01272200       6.37288760      14.64501694
W        6.75954150       7.96610950      14.64501694
W        6.75954150       6.37288760      16.89815510
W        4.50636100       7.96610950      16.89815510
W        4.50636100       6.37288760      19.45896861
W        6.75954150       7.96610950      19.45896861
W        6.75954150       6.37288760      21.71210676
W        4.50636100       7.96610950      21.71210676
W        4.50636100       6.37288760      23.96523406
W        6.75954150       7.96610950      23.96523406
W        6.75954150       6.37288760      26.21837145
W        4.50636100       7.96610950      26.21837145
W        9.01272200       6.37288760      28.47146606
W        6.75954150       7.96610950      28.47146606
W        6.75954150       6.37288760      30.72450908
W        4.50636100       7.96610950      30.72450908
W        4.50636100       6.37288760      32.97750537
W        6.75954150       7.96610950      32.97750537
W        6.75954150       6.37288760      35.23056781
W        4.50636100       7.96610950      35.23056781
W        9.01272200      -0.00000000       1.12655590
W       11.26590250       1.59322190       1.12655590
W       11.26590250       0.00000000       3.37961833
W       13.51908301       1.59322190       3.37961833
W        9.01272200      -0.00000000       5.63261462
W       11.26590250       1.59322190       5.63261462
W       11.26590250      -0.00000000       7.88565765
W       13.51908301       1.59322190       7.88565765
W        9.01272200      -0.00000000      10.13875225
W       11.26590250       1.59322190      10.13875225
W       11.26590250       0.00000000      12.39188965
W       13.51908301       1.59322190      12.39188965
W       13.51908301      -0.00000000      14.64501694
W       11.26590250       1.59322190      14.64501694
W       11.26590250      -0.00000000      16.89815510
W        9.01272200       1.59322190      16.89815510
W        9.01272200      -0.00000000      19.45896861
W       11.26590250       1.59322190      19.45896861
W       11.26590250       0.00000000      21.71210676
W        9.01272200       1.59322190      21.71210676
W        9.01272200       0.00000000      23.96523406
W       11.26590250       1.59322190      23.96523406
W       11.26590250       0.00000000      26.21837145
W        9.01272200       1.59322190      26.21837145
W       13.51908301       0.00000000      28.47146606
W       11.26590250       1.59322190      28.47146606
W       11.26590250      -0.00000000      30.72450908
W        9.01272200       1.59322190      30.72450908
W        9.01272200      -0.00000000      32.97750537
W       11.26590250       1.59322190      32.97750537
W       11.26590250      -0.00000000      35.23056781
W        9.01272200       1.59322190      35.23056781
W        9.01272200       3.18644380       1.12655590
W       11.26590250       4.77966570       1.12655590
W       11.26590250       3.18644380       3.37961833
W       13.51908301       4.77966570       3.37961833
W        9.01272200       3.18644380       5.63261462
W       11.26590250       4.77966570       5.63261462
W       11.26590250       3.18644380       7.88565765
W       13.51908301       4.77966570       7.88565765
W        9.01272200       3.18644380      10.13875225
W       11.26590250       4.77966570      10.13875225
W       11.26590250       3.18644380      12.39188965
W       13.51908301       4.77966570      12.39188965
W       13.51908301       3.18644380      14.64501694
W       11.26590250       4.77966570      14.64501694
W       11.26590250       3.18644380      16.89815510
W        9.01272200       4.77966570      16.89815510
W        9.01272200       3.18644380      19.45896861
W       11.26590250       4.77966570      19.45896861
W       11.26590250       3.18644380      21.71210676
W        9.01272200       4.77966570      21.71210676
W        9.01272200       3.18644380      23.96523406
W       11.26590250       4.77966570      23.96523406
W       11.26590250       3.18644380      26.21837145
W        9.01272200       4.77966570      26.21837145
W       13.51908301       3.18644380      28.47146606
W       11.26590250       4.77966570      28.47146606
W       11.26590250       3.18644380      30.72450908
W        9.01272200       4.77966570      30.72450908
W        9.01272200       3.18644380      32.97750537
W       11.26590250       4.77966570      32.97750537
W       11.26590250       3.18644380      35.23056781
W        9.01272200       4.77966570      35.23056781
W        9.01272200       6.37288760       1.12655590
W       11.26590250       7.96610950       1.12655590
W       11.26590250       6.37288760       3.37961833
W       13.51908301       7.96610950       3.37961833
W        9.01272200       6.37288760       5.63261462
W       11.26590250       7.96610950       5.63261462
W       11.26590250       6.37288760       7.88565765
W       13.51908301       7.96610950       7.88565765
W        9.01272200       6.37288760      10.13875225
W       11.26590250       7.96610950      10.13875225
W       11.26590250       6.37288760      12.39188965
W       13.51908301       7.96610950      12.39188965
W       13.51908301       6.37288760      14.64501694
W       11.26590250       7.96610950      14.64501694
W       11.26590250       6.37288760      16.89815510
W        9.01272200       7.96610950      16.89815510
W        9.01272200       6.37288760      19.45896861
W       11.26590250       7.96610950      19.45896861
W       11.26590250       6.37288760      21.71210676
W        9.01272200       7.96610950      21.71210676
W        9.01272200       6.37288760      23.96523406
W       11.26590250       7.96610950      23.96523406
W       11.26590250       6.37288760      26.21837145
W        9.01272200       7.96610950      26.21837145
W       13.51908301       6.37288760      28.47146606
W       11.26590250       7.96610950      28.47146606
W       11.26590250       6.37288760      30.72450908
W        9.01272200       7.96610950      30.72450908
W        9.01272200       6.37288760      32.97750537
W       11.26590250       7.96610950      32.97750537
W       11.26590250       6.37288760      35.23056781
W        9.01272200       7.96610950      35.23056781
288
Lattice="13.519083005276505 3.9762680028551066e-17 -4.0430281816947754e-17 2.832107032207403e-17 9.559331404516637 -2.7421228983415876e-17 -9.765279892702126e-17 -9.449974793418939e-17 36.459687808786164" Properties=species:S:1:pos:R:3 vacuum_gap_Ang=0.41025641025641024 frame_index=4 pbc="T T T"
W       -0.00000000       0.00000000       1.12655590
W        2.25318050       1.59322190       1.12655590
W        2.25318050       0.00000000       3.37961833
W        4.50636100       1.59322190       3.37961833
W       -0.00000000       0.00000000       5.63261462
W        2.25318050       1.59322190       5.63261462
W        2.25318050      -0.00000000       7.88565765
W        4.50636100       1.59322190       7.88565765
W       -0.00000000       0.00000000      10.13875225
W        2.25318050       1.59322190      10.13875225
W        2.25318050      -0.00000000      12.39188965
W        4.50636100       1.59322190      12.39188965
W        4.50636100      -0.00000000      14.64501694
W        2.25318050       1.59322190      14.64501694
W        2.25318050       0.00000000      16.89815510
W       -0.00000000       1.59322190      16.89815510
W       -0.00000000       0.00000000      19.56153271
W        2.25318050       1.59322190      19.56153271
W        2.25318050      -0.00000000      21.81467087
W       -0.00000000       1.59322190      21.81467087
W       -0.00000000      -0.00000000      24.06779816
W        2.25318050       1.59322190      24.06779816
W        2.25318050       0.00000000      26.32093556
W       -0.00000000       1.59322190      26.32093556
W        4.50636100      -0.00000000      28.57403016
W        2.25318050       1.59322190      28.57403016
W        2.25318050      -0.00000000      30.82707319
W       -0.00000000       1.59322190      30.82707319
W       -0.00000000      -0.00000000      33.08006948
W        2.25318050       1.59322190      33.08006948
W        2.25318050       0.00000000      35.33313191
W       -0.00000000       1.59322190      35.33313191
W       -0.00000000       3.18644380       1.12655590
W        2.25318050       4.77966570       1.12655590
W        2.25318050       3.18644380       3.37961833
W        4.50636100       4.77966570       3.37961833
W       -0.00000000       3.18644380       5.63261462
W        2.25318050       4.77966570       5.63261462
W        2.25318050       3.18644380       7.88565765
W        4.50636100       4.77966570       7.88565765
W       -0.00000000       3.18644380      10.13875225
W        2.25318050       4.77966570      10.13875225
W        2.25318050       3.18644380      12.39188965
W        4.50636100       4.77966570      12.39188965
W        4.50636100       3.18644380      14.64501694
W        2.25318050       4.77966570      14.64501694
W        2.25318050       3.18644380      16.89815510
W       -0.00000000       4.77966570      16.89815510
W       -0.00000000       3.18644380      19.56153271
W        2.25318050       4.77966570      19.56153271
W        2.25318050       3.18644380      21.81467087
W       -0.00000000       4.77966570      21.81467087
W       -0.00000000       3.18644380      24.06779816
W        2.25318050       4.77966570      24.06779816
W        2.25318050       3.18644380      26.32093556
W       -0.00000000       4.77966570      26.32093556
W        4.50636100       3.18644380      28.57403016
W        2.25318050       4.77966570      28.57403016
W        2.25318050       3.18644380      30.82707319
W       -0.00000000       4.77966570      30.82707319
W       -0.00000000       3.18644380      33.08006948
W        2.25318050       4.77966570      33.08006948
W        2.25318050       3.18644380      35.33313191
W       -0.00000000       4.77966570      35.33313191
W       -0.00000000       6.37288760       1.12655590
W        2.25318050       7.96610950       1.12655590
W        2.25318050       6.37288760       3.37961833
W        4.50636100       7.96610950       3.37961833
W       -0.00000000       6.37288760       5.63261462
W        2.25318050       7.96610950       5.63261462
W        2.25318050       6.37288760       7.88565765
W        4.50636100       7.96610950       7.88565765
W        0.00000000       6.37288760      10.13875225
W        2.25318050       7.96610950      10.13875225
W        2.25318050       6.37288760      12.39188965
W        4.50636100       7.96610950      12.39188965
W        4.50636100       6.37288760      14.64501694
W        2.25318050       7.96610950      14.64501694
W        2.25318050       6.37288760      16.89815510
W       -0.00000000       7.96610950      16.89815510
W       -0.00000000       6.37288760      19.56153271
W        2.25318050       7.96610950      19.56153271
W        2.25318050       6.37288760      21.81467087
W       -0.00000000       7.96610950      21.81467087
W       -0.00000000       6.37288760      24.06779816
W        2.25318050       7.96610950      24.06779816
W        2.25318050       6.37288760      26.32093556
W       -0.00000000       7.96610950      26.32093556
W        4.50636100       6.37288760      28.57403016
W        2.25318050       7.96610950      28.57403016
W        2.25318050       6.37288760      30.82707319
W       -0.00000000       7.96610950      30.82707319
W       -0.00000000       6.37288760      33.08006948
W        2.25318050       7.96610950      33.08006948
W        2.25318050       6.37288760      35.33313191
W       -0.00000000       7.96610950      35.33313191
W        4.50636100      -0.00000000       1.12655590
W        6.75954150       1.59322190       1.12655590
W        6.75954150       0.00000000       3.37961833
W        9.01272200       1.59322190       3.37961833
W        4.50636100       0.00000000       5.63261462
W        6.75954150       1.59322190       5.63261462
W        6.75954150      -0.00000000       7.88565765
W        9.01272200       1.59322190       7.88565765
W        4.50636100      -0.00000000      10.13875225
W        6.75954150       1.59322190      10.13875225
W        6.75954150       0.00000000      12.39188965
W        9.01272200       1.59322190      12.39188965
W        9.01272200      -0.00000000      14.64501694
W        6.75954150       1.59322190      14.64501694
W        6.75954150       0.00000000      16.89815510
W        4.50636100       1.59322190      16.89815510
W        4.50636100      -0.00000000      19.56153271
W        6.75954150       1.59322190      19.56153271
W        6.75954150      -0.00000000      21.81467087
W        4.50636100       1.59322190      21.81467087
W        4.50636100       0.00000000      24.06779816
W        6.75954150       1.59322190      24.06779816
W        6.75954150       0.00000000      26.32093556
W        4.50636100       1.59322190      26.32093556
W        9.01272200      -0.00000000      28.57403016
W        6.75954150       1.59322190      28.57403016
W        6.75954150      -0.00000000      30.82707319
W        4.50636100       1.59322190      30.82707319
W        4.50636100       0.00000000      33.08006948
W        6.75954150       1.59322190      33.08006948
W        6.75954150      -0.00000000      35.33313191
W        4.50636100       1.59322190      35.33313191
W        4.50636100       3.18644380       1.12655590
W        6.75954150       4.77966570       1.12655590
W        6.75954150       3.18644380       3.37961833
W        9.01272200       4.77966570       3.37961833
W        4.50636100       3.18644380       5.63261462
W        6.75954150       4.77966570       5.63261462
W        6.75954150       3.18644380       7.88565765
W        9.01272200       4.77966570       7.88565765
W        4.50636100       3.18644380      10.13875225
W        6.75954150       4.77966570      10.13875225
W        6.75954150       3.18644380      12.39188965
W        9.01272200       4.77966570      12.39188965
W        9.01272200       3.18644380      14.64501694
W        6.75954150       4.77966570      14.64501694
W        6.75954150       3.18644380      16.89815510
W        4.50636100       4.77966570      16.89815510
W        4.50636100       3.18644380      19.56153271
W        6.75954150       4.77966570      19.56153271
W        6.75954150       3.18644380      21.81467087
W        4.50636100       4.77966570      21.81467087
W        4.50636100       3.18644380      24.06779816
W        6.75954150       4.77966570      24.06779816
W        6.75954150       3.18644380      26.32093556
W        4.50636100       4.77966570      26.32093556
W        9.01272200       3.18644380      28.57403016
W        6.75954150       4.77966570      28.57403016
W        6.75954150       3.18644380      30.82707319
W        4.50636100       4.77966570      30.82707319
W        4.50636100       3.18644380      33.08006948
W        6.75954150       4.77966570      33.08006948
W        6.75954150       3.18644380      35.33313191
W        4.50636100       4.77966570      35.33313191
W        4.50636100       6.37288760       1.12655590
W        6.75954150       7.96610950       1.12655590
W        6.75954150       6.37288760       3.37961833
W        9.01272200       7.96610950       3.37961833
W        4.50636100       6.37288760       5.63261462
W        6.75954150       7.96610950       5.63261462
W        6.75954150       6.37288760       7.88565765
W        9.01272200       7.96610950       7.88565765
W        4.50636100       6.37288760      10.13875225
W        6.75954150       7.96610950      10.13875225
W        6.75954150       6.37288760      12.39188965
W        9.01272200       7.96610950      12.39188965
W        9.01272200       6.37288760      14.64501694
W        6.75954150       7.96610950      14.64501694
W        6.75954150       6.37288760      16.89815510
W        4.50636100       7.96610950      16.89815510
W        4.50636100       6.37288760      19.56153271
W        6.75954150       7.96610950      19.56153271
W        6.75954150       6.37288760      21.81467087
W        4.50636100       7.96610950      21.81467087
W        4.50636100       6.37288760      24.06779816
W        6.75954150       7.96610950      24.06779816
W        6.75954150       6.37288760      26.32093556
W        4.50636100       7.96610950      26.32093556
W        9.01272200       6.37288760      28.57403016
W        6.75954150       7.96610950      28.57403016
W        6.75954150       6.37288760      30.82707319
W        4.50636100       7.96610950      30.82707319
W        4.50636100       6.37288760      33.08006948
W        6.75954150       7.96610950      33.08006948
W        6.75954150       6.37288760      35.33313191
W        4.50636100       7.96610950      35.33313191
W        9.01272200      -0.00000000       1.12655590
W       11.26590250       1.59322190       1.12655590
W       11.26590250       0.00000000       3.37961833
W       13.51908301       1.59322190       3.37961833
W        9.01272200      -0.00000000       5.63261462
W       11.26590250       1.59322190       5.63261462
W       11.26590250      -0.00000000       7.88565765
W       13.51908301       1.59322190       7.88565765
W        9.01272200      -0.00000000      10.13875225
W       11.26590250       1.59322190      10.13875225
W       11.26590250       0.00000000      12.39188965
W       13.51908301       1.59322190      12.39188965
W       13.51908301      -0.00000000      14.64501694
W       11.26590250       1.59322190      14.64501694
W       11.26590250      -0.00000000      16.89815510
W        9.01272200       1.59322190      16.89815510
W        9.01272200      -0.00000000      19.56153271
W       11.26590250       1.59322190      19.56153271
W       11.26590250       0.00000000      21.81467087
W        9.01272200       1.59322190      21.81467087
W        9.01272200       0.00000000      24.06779816
W       11.26590250       1.59322190      24.06779816
W       11.26590250       0.00000000      26.32093556
W        9.01272200       1.59322190      26.32093556
W       13.51908301       0.00000000      28.57403016
W       11.26590250       1.59322190      28.57403016
W       11.26590250      -0.00000000      30.82707319
W        9.01272200       1.59322190      30.82707319
W        9.01272200      -0.00000000      33.08006948
W       11.26590250       1.59322190      33.08006948
W       11.26590250      -0.00000000      35.33313191
W        9.01272200       1.59322190      35.33313191
W        9.01272200       3.18644380       1.12655590
W       11.26590250       4.77966570       1.12655590
W       11.26590250       3.18644380       3.37961833
W       13.51908301       4.77966570       3.37961833
W        9.01272200       3.18644380       5.63261462
W       11.26590250       4.77966570       5.63261462
W       11.26590250       3.18644380       7.88565765
W       13.51908301       4.77966570       7.88565765
W        9.01272200       3.18644380      10.13875225
W       11.26590250       4.77966570      10.13875225
W       11.26590250       3.18644380      12.39188965
W       13.51908301       4.77966570      12.39188965
W       13.51908301       3.18644380      14.64501694
W       11.26590250       4.77966570      14.64501694
W       11.26590250       3.18644380      16.89815510
W        9.01272200       4.77966570      16.89815510
W        9.01272200       3.18644380      19.56153271
W       11.26590250       4.77966570      19.56153271
W       11.26590250       3.18644380      21.81467087
W        9.01272200       4.77966570      21.81467087
W        9.01272200       3.18644380      24.06779816
W       11.26590250       4.77966570      24.06779816
W       11.26590250       3.18644380      26.32093556
W        9.01272200       4.77966570      26.32093556
W       13.51908301       3.18644380      28.57403016
W       11.26590250       4.77966570      28.57403016
W       11.26590250       3.18644380      30.82707319
W        9.01272200       4.77966570      30.82707319
W        9.01272200       3.18644380      33.08006948
W       11.26590250       4.77966570      33.08006948
W       11.26590250       3.18644380      35.33313191
W        9.01272200       4.77966570      35.33313191
W        9.01272200       6.37288760       1.12655590
W       11.26590250       7.96610950       1.12655590
W       11.26590250       6.37288760       3.37961833
W       13.51908301       7.96610950       3.37961833
W        9.01272200       6.37288760       5.63261462
W       11.26590250       7.96610950       5.63261462
W       11.26590250       6.37288760       7.88565765
W       13.51908301       7.96610950       7.88565765
W        9.01272200       6.37288760      10.13875225
W       11.26590250       7.96610950      10.13875225
W       11.26590250       6.37288760      12.39188965
W       13.51908301       7.96610950      12.39188965
W       13.51908301       6.37288760      14.64501694
W       11.26590250       7.96610950      14.64501694
W       11.26590250       6.37288760      16.89815510
W        9.01272200       7.96610950      16.89815510
W        9.01272200       6.37288760      19.56153271
W       11.26590250       7.96610950      19.56153271
W       11.26590250       6.37288760      21.81467087
W        9.01272200       7.96610950      21.81467087
W        9.01272200       6.37288760      24.06779816
W       11.26590250       7.96610950      24.06779816
W       11.26590250       6.37288760      26.32093556
W        9.01272200       7.96610950      26.32093556
W       13.51908301       6.37288760      28.57403016
W       11.26590250       7.96610950      28.57403016
W       11.26590250       6.37288760      30.82707319
W        9.01272200       7.96610950      30.82707319
W        9.01272200       6.37288760      33.08006948
W       11.26590250       7.96610950      33.08006948
W       11.26590250       6.37288760      35.33313191
W        9.01272200       7.96610950      35.33313191
288
Lattice="13.519083005276505 3.9762680028551066e-17 -4.0430281816947754e-17 2.832107032207403e-17 9.559331404516637 -2.7421228983415876e-17 -9.765279892702126e-17 -9.449974793418939e-17 36.562251911350266" Properties=species:S:1:pos:R:3 vacuum_gap_Ang=0.5128205128205128 frame_index=5 pbc="T T T"
W       -0.00000000       0.00000000       1.12655590
W        2.25318050       1.59322190       1.12655590
W        2.25318050       0.00000000       3.37961833
W        4.50636100       1.59322190       3.37961833
W       -0.00000000       0.00000000       5.63261462
W        2.25318050       1.59322190       5.63261462
W        2.25318050      -0.00000000       7.88565765
W        4.50636100       1.59322190       7.88565765
W       -0.00000000       0.00000000      10.13875225
W        2.25318050       1.59322190      10.13875225
W        2.25318050      -0.00000000      12.39188965
W        4.50636100       1.59322190      12.39188965
W        4.50636100      -0.00000000      14.64501694
W        2.25318050       1.59322190      14.64501694
W        2.25318050       0.00000000      16.89815510
W       -0.00000000       1.59322190      16.89815510
W       -0.00000000       0.00000000      19.66409682
W        2.25318050       1.59322190      19.66409682
W        2.25318050      -0.00000000      21.91723497
W       -0.00000000       1.59322190      21.91723497
W       -0.00000000      -0.00000000      24.17036226
W        2.25318050       1.59322190      24.17036226
W        2.25318050       0.00000000      26.42349966
W       -0.00000000       1.59322190      26.42349966
W        4.50636100      -0.00000000      28.67659426
W        2.25318050       1.59322190      28.67659426
W        2.25318050      -0.00000000      30.92963729
W       -0.00000000       1.59322190      30.92963729
W       -0.00000000      -0.00000000      33.18263358
W        2.25318050       1.59322190      33.18263358
W        2.25318050       0.00000000      35.43569601
W       -0.00000000       1.59322190      35.43569601
W       -0.00000000       3.18644380       1.12655590
W        2.25318050       4.77966570       1.12655590
W        2.25318050       3.18644380       3.37961833
W        4.50636100       4.77966570       3.37961833
W       -0.00000000       3.18644380       5.63261462
W        2.25318050       4.77966570       5.63261462
W        2.25318050       3.18644380       7.88565765
W        4.50636100       4.77966570       7.88565765
W       -0.00000000       3.18644380      10.13875225
W        2.25318050       4.77966570      10.13875225
W        2.25318050       3.18644380      12.39188965
W        4.50636100       4.77966570      12.39188965
W        4.50636100       3.18644380      14.64501694
W        2.25318050       4.77966570      14.64501694
W        2.25318050       3.18644380      16.89815510
W       -0.00000000       4.77966570      16.89815510
W       -0.00000000       3.18644380      19.66409682
W        2.25318050       4.77966570      19.66409682
W        2.25318050       3.18644380      21.91723497
W       -0.00000000       4.77966570      21.91723497
W       -0.00000000       3.18644380      24.17036226
W        2.25318050       4.77966570      24.17036226
W        2.25318050       3.18644380      26.42349966
W       -0.00000000       4.77966570      26.42349966
W        4.50636100       3.18644380      28.67659426
W        2.25318050       4.77966570      28.67659426
W        2.25318050       3.18644380      30.92963729
W       -0.00000000       4.77966570      30.92963729
W       -0.00000000       3.18644380      33.18263358
W        2.25318050       4.77966570      33.18263358
W        2.25318050       3.18644380      35.43569601
W       -0.00000000       4.77966570      35.43569601
W       -0.00000000       6.37288760       1.12655590
W        2.25318050       7.96610950       1.12655590
W        2.25318050       6.37288760       3.37961833
W        4.50636100       7.96610950       3.37961833
W       -0.00000000       6.37288760       5.63261462
W        2.25318050       7.96610950       5.63261462
W        2.25318050       6.37288760       7.88565765
W        4.50636100       7.96610950       7.88565765
W        0.00000000       6.37288760      10.13875225
W        2.25318050       7.96610950      10.13875225
W        2.25318050       6.37288760      12.39188965
W        4.50636100       7.96610950      12.39188965
W        4.50636100       6.37288760      14.64501694
W        2.25318050       7.96610950      14.64501694
W        2.25318050       6.37288760      16.89815510
W       -0.00000000       7.96610950      16.89815510
W       -0.00000000       6.37288760      19.66409682
W        2.25318050       7.96610950      19.66409682
W        2.25318050       6.37288760      21.91723497
W       -0.00000000       7.96610950      21.91723497
W       -0.00000000       6.37288760      24.17036226
W        2.25318050       7.96610950      24.17036226
W        2.25318050       6.37288760      26.42349966
W       -0.00000000       7.96610950      26.42349966
W        4.50636100       6.37288760      28.67659426
W        2.25318050       7.96610950      28.67659426
W        2.25318050       6.37288760      30.92963729
W       -0.00000000       7.96610950      30.92963729
W       -0.00000000       6.37288760      33.18263358
W        2.25318050       7.96610950      33.18263358
W        2.25318050       6.37288760      35.43569601
W       -0.00000000       7.96610950      35.43569601
W        4.50636100      -0.00000000       1.12655590
W        6.75954150       1.59322190       1.12655590
W        6.75954150       0.00000000       3.37961833
W        9.01272200       1.59322190       3.37961833
W        4.50636100       0.00000000       5.63261462
W        6.75954150       1.59322190       5.63261462
W        6.75954150      -0.00000000       7.88565765
W        9.01272200       1.59322190       7.88565765
W        4.50636100      -0.00000000      10.13875225
W        6.75954150       1.59322190      10.13875225
W        6.75954150       0.00000000      12.39188965
W        9.01272200       1.59322190      12.39188965
W        9.01272200      -0.00000000      14.64501694
W        6.75954150       1.59322190      14.64501694
W        6.75954150       0.00000000      16.89815510
W        4.50636100       1.59322190      16.89815510
W        4.50636100      -0.00000000      19.66409682
W        6.75954150       1.59322190      19.66409682
W        6.75954150      -0.00000000      21.91723497
W        4.50636100       1.59322190      21.91723497
W        4.50636100       0.00000000      24.17036226
W        6.75954150       1.59322190      24.17036226
W        6.75954150       0.00000000      26.42349966
W        4.50636100       1.59322190      26.42349966
W        9.01272200      -0.00000000      28.67659426
W        6.75954150       1.59322190      28.67659426
W        6.75954150      -0.00000000      30.92963729
W        4.50636100       1.59322190      30.92963729
W        4.50636100       0.00000000      33.18263358
W        6.75954150       1.59322190      33.18263358
W        6.75954150      -0.00000000      35.43569601
W        4.50636100       1.59322190      35.43569601
W        4.50636100       3.18644380       1.12655590
W        6.75954150       4.77966570       1.12655590
W        6.75954150       3.18644380       3.37961833
W        9.01272200       4.77966570       3.37961833
W        4.50636100       3.18644380       5.63261462
W        6.75954150       4.77966570       5.63261462
W        6.75954150       3.18644380       7.88565765
W        9.01272200       4.77966570       7.88565765
W        4.50636100       3.18644380      10.13875225
W        6.75954150       4.77966570      10.13875225
W        6.75954150       3.18644380      12.39188965
W        9.01272200       4.77966570      12.39188965
W        9.01272200       3.18644380      14.64501694
W        6.75954150       4.77966570      14.64501694
W        6.75954150       3.18644380      16.89815510
W        4.50636100       4.77966570      16.89815510
W        4.50636100       3.18644380      19.66409682
W        6.75954150       4.77966570      19.66409682
W        6.75954150       3.18644380      21.91723497
W        4.50636100       4.77966570      21.91723497
W        4.50636100       3.18644380      24.17036226
W        6.75954150       4.77966570      24.17036226
W        6.75954150       3.18644380      26.42349966
W        4.50636100       4.77966570      26.42349966
W        9.01272200       3.18644380      28.67659426
W        6.75954150       4.77966570      28.67659426
W        6.75954150       3.18644380      30.92963729
W        4.50636100       4.77966570      30.92963729
W        4.50636100       3.18644380      33.18263358
W        6.75954150       4.77966570      33.18263358
W        6.75954150       3.18644380      35.43569601
W        4.50636100       4.77966570      35.43569601
W        4.50636100       6.37288760       1.12655590
W        6.75954150       7.96610950       1.12655590
W        6.75954150       6.37288760       3.37961833
W        9.01272200       7.96610950       3.37961833
W        4.50636100       6.37288760       5.63261462
W        6.75954150       7.96610950       5.63261462
W        6.75954150       6.37288760       7.88565765
W        9.01272200       7.96610950       7.88565765
W        4.50636100       6.37288760      10.13875225
W        6.75954150       7.96610950      10.13875225
W        6.75954150       6.37288760      12.39188965
W        9.01272200       7.96610950      12.39188965
W        9.01272200       6.37288760      14.64501694
W        6.75954150       7.96610950      14.64501694
W        6.75954150       6.37288760      16.89815510
W        4.50636100       7.96610950      16.89815510
W        4.50636100       6.37288760      19.66409682
W        6.75954150       7.96610950      19.66409682
W        6.75954150       6.37288760      21.91723497
W        4.50636100       7.96610950      21.91723497
W        4.50636100       6.37288760      24.17036226
W        6.75954150       7.96610950      24.17036226
W        6.75954150       6.37288760      26.42349966
W        4.50636100       7.96610950      26.42349966
W        9.01272200       6.37288760      28.67659426
W        6.75954150       7.96610950      28.67659426
W        6.75954150       6.37288760      30.92963729
W        4.50636100       7.96610950      30.92963729
W        4.50636100       6.37288760      33.18263358
W        6.75954150       7.96610950      33.18263358
W        6.75954150       6.37288760      35.43569601
W        4.50636100       7.96610950      35.43569601
W        9.01272200      -0.00000000       1.12655590
W       11.26590250       1.59322190       1.12655590
W       11.26590250       0.00000000       3.37961833
W       13.51908301       1.59322190       3.37961833
W        9.01272200      -0.00000000       5.63261462
W       11.26590250       1.59322190       5.63261462
W       11.26590250      -0.00000000       7.88565765
W       13.51908301       1.59322190       7.88565765
W        9.01272200      -0.00000000      10.13875225
W       11.26590250       1.59322190      10.13875225
W       11.26590250       0.00000000      12.39188965
W       13.51908301       1.59322190      12.39188965
W       13.51908301      -0.00000000      14.64501694
W       11.26590250       1.59322190      14.64501694
W       11.26590250      -0.00000000      16.89815510
W        9.01272200       1.59322190      16.89815510
W        9.01272200      -0.00000000      19.66409682
W       11.26590250       1.59322190      19.66409682
W       11.26590250       0.00000000      21.91723497
W        9.01272200       1.59322190      21.91723497
W        9.01272200       0.00000000      24.17036226
W       11.26590250       1.59322190      24.17036226
W       11.26590250       0.00000000      26.42349966
W        9.01272200       1.59322190      26.42349966
W       13.51908301       0.00000000      28.67659426
W       11.26590250       1.59322190      28.67659426
W       11.26590250      -0.00000000      30.92963729
W        9.01272200       1.59322190      30.92963729
W        9.01272200      -0.00000000      33.18263358
W       11.26590250       1.59322190      33.18263358
W       11.26590250      -0.00000000      35.43569601
W        9.01272200       1.59322190      35.43569601
W        9.01272200       3.18644380       1.12655590
W       11.26590250       4.77966570       1.12655590
W       11.26590250       3.18644380       3.37961833
W       13.51908301       4.77966570       3.37961833
W        9.01272200       3.18644380       5.63261462
W       11.26590250       4.77966570       5.63261462
W       11.26590250       3.18644380       7.88565765
W       13.51908301       4.77966570       7.88565765
W        9.01272200       3.18644380      10.13875225
W       11.26590250       4.77966570      10.13875225
W       11.26590250       3.18644380      12.39188965
W       13.51908301       4.77966570      12.39188965
W       13.51908301       3.18644380      14.64501694
W       11.26590250       4.77966570      14.64501694
W       11.26590250       3.18644380      16.89815510
W        9.01272200       4.77966570      16.89815510
W        9.01272200       3.18644380      19.66409682
W       11.26590250       4.77966570      19.66409682
W       11.26590250       3.18644380      21.91723497
W        9.01272200       4.77966570      21.91723497
W        9.01272200       3.18644380      24.17036226
W       11.26590250       4.77966570      24.17036226
W       11.26590250       3.18644380      26.42349966
W        9.01272200       4.77966570      26.42349966
W       13.51908301       3.18644380      28.67659426
W       11.26590250       4.77966570      28.67659426
W       11.26590250       3.18644380      30.92963729
W        9.01272200       4.77966570      30.92963729
W        9.01272200       3.18644380      33.18263358
W       11.26590250       4.77966570      33.18263358
W       11.26590250       3.18644380      35.43569601
W        9.01272200       4.77966570      35.43569601
W        9.01272200       6.37288760       1.12655590
W       11.26590250       7.96610950       1.12655590
W       11.26590250       6.37288760       3.37961833
W       13.51908301       7.96610950       3.37961833
W        9.01272200       6.37288760       5.63261462
W       11.26590250       7.96610950       5.63261462
W       11.26590250       6.37288760       7.88565765
W       13.51908301       7.96610950       7.88565765
W        9.01272200       6.37288760      10.13875225
W       11.26590250       7.96610950      10.13875225
W       11.26590250       6.37288760      12.39188965
W       13.51908301       7.96610950      12.39188965
W       13.51908301       6.37288760      14.64501694
W       11.26590250       7.96610950      14.64501694
W       11.26590250       6.37288760      16.89815510
W        9.01272200       7.96610950      16.89815510
W        9.01272200       6.37288760      19.66409682
W       11.26590250       7.96610950      19.66409682
W       11.26590250       6.37288760      21.91723497
W        9.01272200       7.96610950      21.91723497
W        9.01272200       6.37288760      24.17036226
W       11.26590250       7.96610950      24.17036226
W       11.26590250       6.37288760      26.42349966
W        9.01272200       7.96610950      26.42349966
W       13.51908301       6.37288760      28.67659426
W       11.26590250       7.96610950      28.67659426
W       11.26590250       6.37288760      30.92963729
W        9.01272200       7.96610950      30.92963729
W        9.01272200       6.37288760      33.18263358
W       11.26590250       7.96610950      33.18263358
W       11.26590250       6.37288760      35.43569601
W        9.01272200       7.96610950      35.43569601
288
Lattice="13.519083005276505 3.9762680028551066e-17 -4.0430281816947754e-17 2.832107032207403e-17 9.559331404516637 -2.7421228983415876e-17 -9.765279892702126e-17 -9.449974793418939e-17 36.66481601391437" Properties=species:S:1:pos:R:3 vacuum_gap_Ang=0.6153846153846154 frame_index=6 pbc="T T T"
W       -0.00000000       0.00000000       1.12655590
W        2.25318050       1.59322190       1.12655590
W        2.25318050       0.00000000       3.37961833
W        4.50636100       1.59322190       3.37961833
W       -0.00000000       0.00000000       5.63261462
W        2.25318050       1.59322190       5.63261462
W        2.25318050      -0.00000000       7.88565765
W        4.50636100       1.59322190       7.88565765
W       -0.00000000       0.00000000      10.13875225
W        2.25318050       1.59322190      10.13875225
W        2.25318050      -0.00000000      12.39188965
W        4.50636100       1.59322190      12.39188965
W        4.50636100      -0.00000000      14.64501694
W        2.25318050       1.59322190      14.64501694
W        2.25318050       0.00000000      16.89815510
W       -0.00000000       1.59322190      16.89815510
W       -0.00000000       0.00000000      19.76666092
W        2.25318050       1.59322190      19.76666092
W        2.25318050      -0.00000000      22.01979907
W       -0.00000000       1.59322190      22.01979907
W       -0.00000000      -0.00000000      24.27292637
W        2.25318050       1.59322190      24.27292637
W        2.25318050       0.00000000      26.52606376
W       -0.00000000       1.59322190      26.52606376
W        4.50636100      -0.00000000      28.77915836
W        2.25318050       1.59322190      28.77915836
W        2.25318050      -0.00000000      31.03220139
W       -0.00000000       1.59322190      31.03220139
W       -0.00000000      -0.00000000      33.28519768
W        2.25318050       1.59322190      33.28519768
W        2.25318050       0.00000000      35.53826012
W       -0.00000000       1.59322190      35.53826012
W       -0.00000000       3.18644380       1.12655590
W        2.25318050       4.77966570       1.12655590
W        2.25318050       3.18644380       3.37961833
W        4.50636100       4.77966570       3.37961833
W       -0.00000000       3.18644380       5.63261462
W        2.25318050       4.77966570       5.63261462
W        2.25318050       3.18644380       7.88565765
W        4.50636100       4.77966570       7.88565765
W       -0.00000000       3.18644380      10.13875225
W        2.25318050       4.77966570      10.13875225
W        2.25318050       3.18644380      12.39188965
W        4.50636100       4.77966570      12.39188965
W        4.50636100       3.18644380      14.64501694
W        2.25318050       4.77966570      14.64501694
W        2.25318050       3.18644380      16.89815510
W       -0.00000000       4.77966570      16.89815510
W       -0.00000000       3.18644380      19.76666092
W        2.25318050       4.77966570      19.76666092
W        2.25318050       3.18644380      22.01979907
W       -0.00000000       4.77966570      22.01979907
W       -0.00000000       3.18644380      24.27292637
W        2.25318050       4.77966570      24.27292637
W        2.25318050       3.18644380      26.52606376
W       -0.00000000       4.77966570      26.52606376
W        4.50636100       3.18644380      28.77915836
W        2.25318050       4.77966570      28.77915836
W        2.25318050       3.18644380      31.03220139
W       -0.00000000       4.77966570      31.03220139
W       -0.00000000       3.18644380      33.28519768
W        2.25318050       4.77966570      33.28519768
W        2.25318050       3.18644380      35.53826012
W       -0.00000000       4.77966570      35.53826012
W       -0.00000000       6.37288760       1.12655590
W        2.25318050       7.96610950       1.12655590
W        2.25318050       6.37288760       3.37961833
W        4.50636100       7.96610950       3.37961833
W       -0.00000000       6.37288760       5.63261462
W        2.25318050       7.96610950       5.63261462
W        2.25318050       6.37288760       7.88565765
W        4.50636100       7.96610950       7.88565765
W        0.00000000       6.37288760      10.13875225
W        2.25318050       7.96610950      10.13875225
W        2.25318050       6.37288760      12.39188965
W        4.50636100       7.96610950      12.39188965
W        4.50636100       6.37288760      14.64501694
W        2.25318050       7.96610950      14.64501694
W        2.25318050       6.37288760      16.89815510
W       -0.00000000       7.96610950      16.89815510
W       -0.00000000       6.37288760      19.76666092
W        2.25318050       7.96610950      19.76666092
W        2.25318050       6.37288760      22.01979907
W       -0.00000000       7.96610950      22.01979907
W       -0.00000000       6.37288760      24.27292637
W        2.25318050       7.96610950      24.27292637
W        2.25318050       6.37288760      26.52606376
W       -0.00000000       7.96610950      26.52606376
W        4.50636100       6.37288760      28.77915836
W        2.25318050       7.96610950      28.77915836
W        2.25318050       6.37288760      31.03220139
W       -0.00000000       7.96610950      31.03220139
W       -0.00000000       6.37288760      33.28519768
W        2.25318050       7.96610950      33.28519768
W        2.25318050       6.37288760      35.53826012
W       -0.00000000       7.96610950      35.53826012
W        4.50636100      -0.00000000       1.12655590
W        6.75954150       1.59322190       1.12655590
W        6.75954150       0.00000000       3.37961833
W        9.01272200       1.59322190       3.37961833
W        4.50636100       0.00000000       5.63261462
W        6.75954150       1.59322190       5.63261462
W        6.75954150      -0.00000000       7.88565765
W        9.01272200       1.59322190       7.88565765
W        4.50636100      -0.00000000      10.13875225
W        6.75954150       1.59322190      10.13875225
W        6.75954150       0.00000000      12.39188965
W        9.01272200       1.59322190      12.39188965
W        9.01272200      -0.00000000      14.64501694
W        6.75954150       1.59322190      14.64501694
W        6.75954150       0.00000000      16.89815510
W        4.50636100       1.59322190      16.89815510
W        4.50636100      -0.00000000      19.76666092
W        6.75954150       1.59322190      19.76666092
W        6.75954150      -0.00000000      22.01979907
W        4.50636100       1.59322190      22.01979907
W        4.50636100       0.00000000      24.27292637
W        6.75954150       1.59322190      24.27292637
W        6.75954150       0.00000000      26.52606376
W        4.50636100       1.59322190      26.52606376
W        9.01272200      -0.00000000      28.77915836
W        6.75954150       1.59322190      28.77915836
W        6.75954150      -0.00000000      31.03220139
W        4.50636100       1.59322190      31.03220139
W        4.50636100       0.00000000      33.28519768
W        6.75954150       1.59322190      33.28519768
W        6.75954150      -0.00000000      35.53826012
W        4.50636100       1.59322190      35.53826012
W        4.50636100       3.18644380       1.12655590
W        6.75954150       4.77966570       1.12655590
W        6.75954150       3.18644380       3.37961833
W        9.01272200       4.77966570       3.37961833
W        4.50636100       3.18644380       5.63261462
W        6.75954150       4.77966570       5.63261462
W        6.75954150       3.18644380       7.88565765
W        9.01272200       4.77966570       7.88565765
W        4.50636100       3.18644380      10.13875225
W        6.75954150       4.77966570      10.13875225
W        6.75954150       3.18644380      12.39188965
W        9.01272200       4.77966570      12.39188965
W        9.01272200       3.18644380      14.64501694
W        6.75954150       4.77966570      14.64501694
W        6.75954150       3.18644380      16.89815510
W        4.50636100       4.77966570      16.89815510
W        4.50636100       3.18644380      19.76666092
W        6.75954150       4.77966570      19.76666092
W        6.75954150       3.18644380      22.01979907
W        4.50636100       4.77966570      22.01979907
W        4.50636100       3.18644380      24.27292637
W        6.75954150       4.77966570      24.27292637
W        6.75954150       3.18644380      26.52606376
W        4.50636100       4.77966570      26.52606376
W        9.01272200       3.18644380      28.77915836
W        6.75954150       4.77966570      28.77915836
W        6.75954150       3.18644380      31.03220139
W        4.50636100       4.77966570      31.03220139
W        4.50636100       3.18644380      33.28519768
W        6.75954150       4.77966570      33.28519768
W        6.75954150       3.18644380      35.53826012
W        4.50636100       4.77966570      35.53826012
W        4.50636100       6.37288760       1.12655590
W        6.75954150       7.96610950       1.12655590
W        6.75954150       6.37288760       3.37961833
W        9.01272200       7.96610950       3.37961833
W        4.50636100       6.37288760       5.63261462
W        6.75954150       7.96610950       5.63261462
W        6.75954150       6.37288760       7.88565765
W        9.01272200       7.96610950       7.88565765
W        4.50636100       6.37288760      10.13875225
W        6.75954150       7.96610950      10.13875225
W        6.75954150       6.37288760      12.39188965
W        9.01272200       7.96610950      12.39188965
W        9.01272200       6.37288760      14.64501694
W        6.75954150       7.96610950      14.64501694
W        6.75954150       6.37288760      16.89815510
W        4.50636100       7.96610950      16.89815510
W        4.50636100       6.37288760      19.76666092
W        6.75954150       7.96610950      19.76666092
W        6.75954150       6.37288760      22.01979907
W        4.50636100       7.96610950      22.01979907
W        4.50636100       6.37288760      24.27292637
W        6.75954150       7.96610950      24.27292637
W        6.75954150       6.37288760      26.52606376
W        4.50636100       7.96610950      26.52606376
W        9.01272200       6.37288760      28.77915836
W        6.75954150       7.96610950      28.77915836
W        6.75954150       6.37288760      31.03220139
W        4.50636100       7.96610950      31.03220139
W        4.50636100       6.37288760      33.28519768
W        6.75954150       7.96610950      33.28519768
W        6.75954150       6.37288760      35.53826012
W        4.50636100       7.96610950      35.53826012
W        9.01272200      -0.00000000       1.12655590
W       11.26590250       1.59322190       1.12655590
W       11.26590250       0.00000000       3.37961833
W       13.51908301       1.59322190       3.37961833
W        9.01272200      -0.00000000       5.63261462
W       11.26590250       1.59322190       5.63261462
W       11.26590250      -0.00000000       7.88565765
W       13.51908301       1.59322190       7.88565765
W        9.01272200      -0.00000000      10.13875225
W       11.26590250       1.59322190      10.13875225
W       11.26590250       0.00000000      12.39188965
W       13.51908301       1.59322190      12.39188965
W       13.51908301      -0.00000000      14.64501694
W       11.26590250       1.59322190      14.64501694
W       11.26590250      -0.00000000      16.89815510
W        9.01272200       1.59322190      16.89815510
W        9.01272200      -0.00000000      19.76666092
W       11.26590250       1.59322190      19.76666092
W       11.26590250       0.00000000      22.01979907
W        9.01272200       1.59322190      22.01979907
W        9.01272200       0.00000000      24.27292637
W       11.26590250       1.59322190      24.27292637
W       11.26590250       0.00000000      26.52606376
W        9.01272200       1.59322190      26.52606376
W       13.51908301       0.00000000      28.77915836
W       11.26590250       1.59322190      28.77915836
W       11.26590250      -0.00000000      31.03220139
W        9.01272200       1.59322190      31.03220139
W        9.01272200      -0.00000000      33.28519768
W       11.26590250       1.59322190      33.28519768
W       11.26590250      -0.00000000      35.53826012
W        9.01272200       1.59322190      35.53826012
W        9.01272200       3.18644380       1.12655590
W       11.26590250       4.77966570       1.12655590
W       11.26590250       3.18644380       3.37961833
W       13.51908301       4.77966570       3.37961833
W        9.01272200       3.18644380       5.63261462
W       11.26590250       4.77966570       5.63261462
W       11.26590250       3.18644380       7.88565765
W       13.51908301       4.77966570       7.88565765
W        9.01272200       3.18644380      10.13875225
W       11.26590250       4.77966570      10.13875225
W       11.26590250       3.18644380      12.39188965
W       13.51908301       4.77966570      12.39188965
W       13.51908301       3.18644380      14.64501694
W       11.26590250       4.77966570      14.64501694
W       11.26590250       3.18644380      16.89815510
W        9.01272200       4.77966570      16.89815510
W        9.01272200       3.18644380      19.76666092
W       11.26590250       4.77966570      19.76666092
W       11.26590250       3.18644380      22.01979907
W        9.01272200       4.77966570      22.01979907
W        9.01272200       3.18644380      24.27292637
W       11.26590250       4.77966570      24.27292637
W       11.26590250       3.18644380      26.52606376
W        9.01272200       4.77966570      26.52606376
W       13.51908301       3.18644380      28.77915836
W       11.26590250       4.77966570      28.77915836
W       11.26590250       3.18644380      31.03220139
W        9.01272200       4.77966570      31.03220139
W        9.01272200       3.18644380      33.28519768
W       11.26590250       4.77966570      33.28519768
W       11.26590250       3.18644380      35.53826012
W        9.01272200       4.77966570      35.53826012
W        9.01272200       6.37288760       1.12655590
W       11.26590250       7.96610950       1.12655590
W       11.26590250       6.37288760       3.37961833
W       13.51908301       7.96610950       3.37961833
W        9.01272200       6.37288760       5.63261462
W       11.26590250       7.96610950       5.63261462
W       11.26590250       6.37288760       7.88565765
W       13.51908301       7.96610950       7.88565765
W        9.01272200       6.37288760      10.13875225
W       11.26590250       7.96610950      10.13875225
W       11.26590250       6.37288760      12.39188965
W       13.51908301       7.96610950      12.39188965
W       13.51908301       6.37288760      14.64501694
W       11.26590250       7.96610950      14.64501694
W       11.26590250       6.37288760      16.89815510
W        9.01272200       7.96610950      16.89815510
W        9.01272200       6.37288760      19.76666092
W       11.26590250       7.96610950      19.76666092
W       11.26590250       6.37288760      22.01979907
W        9.01272200       7.96610950      22.01979907
W        9.01272200       6.37288760      24.27292637
W       11.26590250       7.96610950      24.27292637
W       11.26590250       6.37288760      26.52606376
W        9.01272200       7.96610950      26.52606376
W       13.51908301       6.37288760      28.77915836
W       11.26590250       7.96610950      28.77915836
W       11.26590250       6.37288760      31.03220139
W        9.01272200       7.96610950      31.03220139
W        9.01272200       6.37288760      33.28519768
W       11.26590250       7.96610950      33.28519768
W       11.26590250       6.37288760      35.53826012
W        9.01272200       7.96610950      35.53826012
288
Lattice="13.519083005276505 3.9762680028551066e-17 -4.0430281816947754e-17 2.832107032207403e-17 9.559331404516637 -2.7421228983415876e-17 -9.765279892702126e-17 -9.449974793418939e-17 36.76738011647847" Properties=species:S:1:pos:R:3 vacuum_gap_Ang=0.717948717948718 frame_index=7 pbc="T T T"
W       -0.00000000       0.00000000       1.12655590
W        2.25318050       1.59322190       1.12655590
W        2.25318050       0.00000000       3.37961833
W        4.50636100       1.59322190       3.37961833
W       -0.00000000       0.00000000       5.63261462
W        2.25318050       1.59322190       5.63261462
W        2.25318050      -0.00000000       7.88565765
W        4.50636100       1.59322190       7.88565765
W       -0.00000000       0.00000000      10.13875225
W        2.25318050       1.59322190      10.13875225
W        2.25318050      -0.00000000      12.39188965
W        4.50636100       1.59322190      12.39188965
W        4.50636100      -0.00000000      14.64501694
W        2.25318050       1.59322190      14.64501694
W        2.25318050       0.00000000      16.89815510
W       -0.00000000       1.59322190      16.89815510
W       -0.00000000       0.00000000      19.86922502
W        2.25318050       1.59322190      19.86922502
W        2.25318050      -0.00000000      22.12236317
W       -0.00000000       1.59322190      22.12236317
W       -0.00000000      -0.00000000      24.37549047
W        2.25318050       1.59322190      24.37549047
W        2.25318050       0.00000000      26.62862786
W       -0.00000000       1.59322190      26.62862786
W        4.50636100      -0.00000000      28.88172247
W        2.25318050       1.59322190      28.88172247
W        2.25318050      -0.00000000      31.13476549
W       -0.00000000       1.59322190      31.13476549
W       -0.00000000      -0.00000000      33.38776178
W        2.25318050       1.59322190      33.38776178
W        2.25318050       0.00000000      35.64082422
W       -0.00000000       1.59322190      35.64082422
W       -0.00000000       3.18644380       1.12655590
W        2.25318050       4.77966570       1.12655590
W        2.25318050       3.18644380       3.37961833
W        4.50636100       4.77966570       3.37961833
W       -0.00000000       3.18644380       5.63261462
W        2.25318050       4.77966570       5.63261462
W        2.25318050       3.18644380       7.88565765
W        4.50636100       4.77966570       7.88565765
W       -0.00000000       3.18644380      10.13875225
W        2.25318050       4.77966570      10.13875225
W        2.25318050       3.18644380      12.39188965
W        4.50636100       4.77966570      12.39188965
W        4.50636100       3.18644380      14.64501694
W        2.25318050       4.77966570      14.64501694
W        2.25318050       3.18644380      16.89815510
W       -0.00000000       4.77966570      16.89815510
W       -0.00000000       3.18644380      19.86922502
W        2.25318050       4.77966570      19.86922502
W        2.25318050       3.18644380      22.12236317
W       -0.00000000       4.77966570      22.12236317
W       -0.00000000       3.18644380      24.37549047
W        2.25318050       4.77966570      24.37549047
W        2.25318050       3.18644380      26.62862786
W       -0.00000000       4.77966570      26.62862786
W        4.50636100       3.18644380      28.88172247
W        2.25318050       4.77966570      28.88172247
W        2.25318050       3.18644380      31.13476549
W       -0.00000000       4.77966570      31.13476549
W       -0.00000000       3.18644380      33.38776178
W        2.25318050       4.77966570      33.38776178
W        2.25318050       3.18644380      35.64082422
W       -0.00000000       4.77966570      35.64082422
W       -0.00000000       6.37288760       1.12655590
W        2.25318050       7.96610950       1.12655590
W        2.25318050       6.37288760       3.37961833
W        4.50636100       7.96610950       3.37961833
W       -0.00000000       6.37288760       5.63261462
W        2.25318050       7.96610950       5.63261462
W        2.25318050       6.37288760       7.88565765
W        4.50636100       7.96610950       7.88565765
W        0.00000000       6.37288760      10.13875225
W        2.25318050       7.96610950      10.13875225
W        2.25318050       6.37288760      12.39188965
W        4.50636100       7.96610950      12.39188965
W        4.50636100       6.37288760      14.64501694
W        2.25318050       7.96610950      14.64501694
W        2.25318050       6.37288760      16.89815510
W       -0.00000000       7.96610950      16.89815510
W       -0.00000000       6.37288760      19.86922502
W        2.25318050       7.96610950      19.86922502
W        2.25318050       6.37288760      22.12236317
W       -0.00000000       7.96610950      22.12236317
W       -0.00000000       6.37288760      24.37549047
W        2.25318050       7.96610950      24.37549047
W        2.25318050       6.37288760      26.62862786
W       -0.00000000       7.96610950      26.62862786
W        4.50636100       6.37288760      28.88172247
W        2.25318050       7.96610950      28.88172247
W        2.25318050       6.37288760      31.13476549
W       -0.00000000       7.96610950      31.13476549
W       -0.00000000       6.37288760      33.38776178
W        2.25318050       7.96610950      33.38776178
W        2.25318050       6.37288760      35.64082422
W       -0.00000000       7.96610950      35.64082422
W        4.50636100      -0.00000000       1.12655590
W        6.75954150       1.59322190       1.12655590
W        6.75954150       0.00000000       3.37961833
W        9.01272200       1.59322190       3.37961833
W        4.50636100       0.00000000       5.63261462
W        6.75954150       1.59322190       5.63261462
W        6.75954150      -0.00000000       7.88565765
W        9.01272200       1.59322190       7.88565765
W        4.50636100      -0.00000000      10.13875225
W        6.75954150       1.59322190      10.13875225
W        6.75954150       0.00000000      12.39188965
W        9.01272200       1.59322190      12.39188965
W        9.01272200      -0.00000000      14.64501694
W        6.75954150       1.59322190      14.64501694
W        6.75954150       0.00000000      16.89815510
W        4.50636100       1.59322190      16.89815510
W        4.50636100      -0.00000000      19.86922502
W        6.75954150       1.59322190      19.86922502
W        6.75954150      -0.00000000      22.12236317
W        4.50636100       1.59322190      22.12236317
W        4.50636100       0.00000000      24.37549047
W        6.75954150       1.59322190      24.37549047
W        6.75954150       0.00000000      26.62862786
W        4.50636100       1.59322190      26.62862786
W        9.01272200      -0.00000000      28.88172247
W        6.75954150       1.59322190      28.88172247
W        6.75954150      -0.00000000      31.13476549
W        4.50636100       1.59322190      31.13476549
W        4.50636100       0.00000000      33.38776178
W        6.75954150       1.59322190      33.38776178
W        6.75954150      -0.00000000      35.64082422
W        4.50636100       1.59322190      35.64082422
W        4.50636100       3.18644380       1.12655590
W        6.75954150       4.77966570       1.12655590
W        6.75954150       3.18644380       3.37961833
W        9.01272200       4.77966570       3.37961833
W        4.50636100       3.18644380       5.63261462
W        6.75954150       4.77966570       5.63261462
W        6.75954150       3.18644380       7.88565765
W        9.01272200       4.77966570       7.88565765
W        4.50636100       3.18644380      10.13875225
W        6.75954150       4.77966570      10.13875225
W        6.75954150       3.18644380      12.39188965
W        9.01272200       4.77966570      12.39188965
W        9.01272200       3.18644380      14.64501694
W        6.75954150       4.77966570      14.64501694
W        6.75954150       3.18644380      16.89815510
W        4.50636100       4.77966570      16.89815510
W        4.50636100       3.18644380      19.86922502
W        6.75954150       4.77966570      19.86922502
W        6.75954150       3.18644380      22.12236317
W        4.50636100       4.77966570      22.12236317
W        4.50636100       3.18644380      24.37549047
W        6.75954150       4.77966570      24.37549047
W        6.75954150       3.18644380      26.62862786
W        4.50636100       4.77966570      26.62862786
W        9.01272200       3.18644380      28.88172247
W        6.75954150       4.77966570      28.88172247
W        6.75954150       3.18644380      31.13476549
W        4.50636100       4.77966570      31.13476549
W        4.50636100       3.18644380      33.38776178
W        6.75954150       4.77966570      33.38776178
W        6.75954150       3.18644380      35.64082422
W        4.50636100       4.77966570      35.64082422
W        4.50636100       6.37288760       1.12655590
W        6.75954150       7.96610950       1.12655590
W        6.75954150       6.37288760       3.37961833
W        9.01272200       7.96610950       3.37961833
W        4.50636100       6.37288760       5.63261462
W        6.75954150       7.96610950       5.63261462
W        6.75954150       6.37288760       7.88565765
W        9.01272200       7.96610950       7.88565765
W        4.50636100       6.37288760      10.13875225
W        6.75954150       7.96610950      10.13875225
W        6.75954150       6.37288760      12.39188965
W        9.01272200       7.96610950      12.39188965
W        9.01272200       6.37288760      14.64501694
W        6.75954150       7.96610950      14.64501694
W        6.75954150       6.37288760      16.89815510
W        4.50636100       7.96610950      16.89815510
W        4.50636100       6.37288760      19.86922502
W        6.75954150       7.96610950      19.86922502
W        6.75954150       6.37288760      22.12236317
W        4.50636100       7.96610950      22.12236317
W        4.50636100       6.37288760      24.37549047
W        6.75954150       7.96610950      24.37549047
W        6.75954150       6.37288760      26.62862786
W        4.50636100       7.96610950      26.62862786
W        9.01272200       6.37288760      28.88172247
W        6.75954150       7.96610950      28.88172247
W        6.75954150       6.37288760      31.13476549
W        4.50636100       7.96610950      31.13476549
W        4.50636100       6.37288760      33.38776178
W        6.75954150       7.96610950      33.38776178
W        6.75954150       6.37288760      35.64082422
W        4.50636100       7.96610950      35.64082422
W        9.01272200      -0.00000000       1.12655590
W       11.26590250       1.59322190       1.12655590
W       11.26590250       0.00000000       3.37961833
W       13.51908301       1.59322190       3.37961833
W        9.01272200      -0.00000000       5.63261462
W       11.26590250       1.59322190       5.63261462
W       11.26590250      -0.00000000       7.88565765
W       13.51908301       1.59322190       7.88565765
W        9.01272200      -0.00000000      10.13875225
W       11.26590250       1.59322190      10.13875225
W       11.26590250       0.00000000      12.39188965
W       13.51908301       1.59322190      12.39188965
W       13.51908301      -0.00000000      14.64501694
W       11.26590250       1.59322190      14.64501694
W       11.26590250      -0.00000000      16.89815510
W        9.01272200       1.59322190      16.89815510
W        9.01272200      -0.00000000      19.86922502
W       11.26590250       1.59322190      19.86922502
W       11.26590250       0.00000000      22.12236317
W        9.01272200       1.59322190      22.12236317
W        9.01272200       0.00000000      24.37549047
W       11.26590250       1.59322190      24.37549047
W       11.26590250       0.00000000      26.62862786
W        9.01272200       1.59322190      26.62862786
W       13.51908301       0.00000000      28.88172247
W       11.26590250       1.59322190      28.88172247
W       11.26590250      -0.00000000      31.13476549
W        9.01272200       1.59322190      31.13476549
W        9.01272200      -0.00000000      33.38776178
W       11.26590250       1.59322190      33.38776178
W       11.26590250      -0.00000000      35.64082422
W        9.01272200       1.59322190      35.64082422
W        9.01272200       3.18644380       1.12655590
W       11.26590250       4.77966570       1.12655590
W       11.26590250       3.18644380       3.37961833
W       13.51908301       4.77966570       3.37961833
W        9.01272200       3.18644380       5.63261462
W       11.26590250       4.77966570       5.63261462
W       11.26590250       3.18644380       7.88565765
W       13.51908301       4.77966570       7.88565765
W        9.01272200       3.18644380      10.13875225
W       11.26590250       4.77966570      10.13875225
W       11.26590250       3.18644380      12.39188965
W       13.51908301       4.77966570      12.39188965
W       13.51908301       3.18644380      14.64501694
W       11.26590250       4.77966570      14.64501694
W       11.26590250       3.18644380      16.89815510
W        9.01272200       4.77966570      16.89815510
W        9.01272200       3.18644380      19.86922502
W       11.26590250       4.77966570      19.86922502
W       11.26590250       3.18644380      22.12236317
W        9.01272200       4.77966570      22.12236317
W        9.01272200       3.18644380      24.37549047
W       11.26590250       4.77966570      24.37549047
W       11.26590250       3.18644380      26.62862786
W        9.01272200       4.77966570      26.62862786
W       13.51908301       3.18644380      28.88172247
W       11.26590250       4.77966570      28.88172247
W       11.26590250       3.18644380      31.13476549
W        9.01272200       4.77966570      31.13476549
W        9.01272200       3.18644380      33.38776178
W       11.26590250       4.77966570      33.38776178
W       11.26590250       3.18644380      35.64082422
W        9.01272200       4.77966570      35.64082422
W        9.01272200       6.37288760       1.12655590
W       11.26590250       7.96610950       1.12655590
W       11.26590250       6.37288760       3.37961833
W       13.51908301       7.96610950       3.37961833
W        9.01272200       6.37288760       5.63261462
W       11.26590250       7.96610950       5.63261462
W       11.26590250       6.37288760       7.88565765
W       13.51908301       7.96610950       7.88565765
W        9.01272200       6.37288760      10.13875225
W       11.26590250       7.96610950      10.13875225
W       11.26590250       6.37288760      12.39188965
W       13.51908301       7.96610950      12.39188965
W       13.51908301       6.37288760      14.64501694
W       11.26590250       7.96610950      14.64501694
W       11.26590250       6.37288760      16.89815510
W        9.01272200       7.96610950      16.89815510
W        9.01272200       6.37288760      19.86922502
W       11.26590250       7.96610950      19.86922502
W       11.26590250       6.37288760      22.12236317
W        9.01272200       7.96610950      22.12236317
W        9.01272200       6.37288760      24.37549047
W       11.26590250       7.96610950      24.37549047
W       11.26590250       6.37288760      26.62862786
W        9.01272200       7.96610950      26.62862786
W       13.51908301       6.37288760      28.88172247
W       11.26590250       7.96610950      28.88172247
W       11.26590250       6.37288760      31.13476549
W        9.01272200       7.96610950      31.13476549
W        9.01272200       6.37288760      33.38776178
W       11.26590250       7.96610950      33.38776178
W       11.26590250       6.37288760      35.64082422
W        9.01272200       7.96610950      35.64082422
288
Lattice="13.519083005276505 3.9762680028551066e-17 -4.0430281816947754e-17 2.832107032207403e-17 9.559331404516637 -2.7421228983415876e-17 -9.765279892702126e-17 -9.449974793418939e-17 36.86994421904257" Properties=species:S:1:pos:R:3 vacuum_gap_Ang=0.8205128205128205 frame_index=8 pbc="T T T"
W       -0.00000000       0.00000000       1.12655590
W        2.25318050       1.59322190       1.12655590
W        2.25318050       0.00000000       3.37961833
W        4.50636100       1.59322190       3.37961833
W       -0.00000000       0.00000000       5.63261462
W        2.25318050       1.59322190       5.63261462
W        2.25318050      -0.00000000       7.88565765
W        4.50636100       1.59322190       7.88565765
W       -0.00000000       0.00000000      10.13875225
W        2.25318050       1.59322190      10.13875225
W        2.25318050      -0.00000000      12.39188965
W        4.50636100       1.59322190      12.39188965
W        4.50636100      -0.00000000      14.64501694
W        2.25318050       1.59322190      14.64501694
W        2.25318050       0.00000000      16.89815510
W       -0.00000000       1.59322190      16.89815510
W       -0.00000000       0.00000000      19.97178912
W        2.25318050       1.59322190      19.97178912
W        2.25318050      -0.00000000      22.22492728
W       -0.00000000       1.59322190      22.22492728
W       -0.00000000      -0.00000000      24.47805457
W        2.25318050       1.59322190      24.47805457
W        2.25318050       0.00000000      26.73119197
W       -0.00000000       1.59322190      26.73119197
W        4.50636100      -0.00000000      28.98428657
W        2.25318050       1.59322190      28.98428657
W        2.25318050      -0.00000000      31.23732960
W       -0.00000000       1.59322190      31.23732960
W       -0.00000000      -0.00000000      33.49032589
W        2.25318050       1.59322190      33.49032589
W        2.25318050       0.00000000      35.74338832
W       -0.00000000       1.59322190      35.74338832
W       -0.00000000       3.18644380       1.12655590
W        2.25318050       4.77966570       1.12655590
W        2.25318050       3.18644380       3.37961833
W        4.50636100       4.77966570       3.37961833
W       -0.00000000       3.18644380       5.63261462
W        2.25318050       4.77966570       5.63261462
W        2.25318050       3.18644380       7.88565765
W        4.50636100       4.77966570       7.88565765
W       -0.00000000       3.18644380      10.13875225
W        2.25318050       4.77966570      10.13875225
W        2.25318050       3.18644380      12.39188965
W        4.50636100       4.77966570      12.39188965
W        4.50636100       3.18644380      14.64501694
W        2.25318050       4.77966570      14.64501694
W        2.25318050       3.18644380      16.89815510
W       -0.00000000       4.77966570      16.89815510
W       -0.00000000       3.18644380      19.97178912
W        2.25318050       4.77966570      19.97178912
W        2.25318050       3.18644380      22.22492728
W       -0.00000000       4.77966570      22.22492728
W       -0.00000000       3.18644380      24.47805457
W        2.25318050       4.77966570      24.47805457
W        2.25318050       3.18644380      26.73119197
W       -0.00000000       4.77966570      26.73119197
W        4.50636100       3.18644380      28.98428657
W        2.25318050       4.77966570      28.98428657
W        2.25318050       3.18644380      31.23732960
W       -0.00000000       4.77966570      31.23732960
W       -0.00000000       3.18644380      33.49032589
W        2.25318050       4.77966570      33.49032589
W        2.25318050       3.18644380      35.74338832
W       -0.00000000       4.77966570      35.74338832
W       -0.00000000       6.37288760       1.12655590
W        2.25318050       7.96610950       1.12655590
W        2.25318050       6.37288760       3.37961833
W        4.50636100       7.96610950       3.37961833
W       -0.00000000       6.37288760       5.63261462
W        2.25318050       7.96610950       5.63261462
W        2.25318050       6.37288760       7.88565765
W        4.50636100       7.96610950       7.88565765
W        0.00000000       6.37288760      10.13875225
W        2.25318050       7.96610950      10.13875225
W        2.25318050       6.37288760      12.39188965
W        4.50636100       7.96610950      12.39188965
W        4.50636100       6.37288760      14.64501694
W        2.25318050       7.96610950      14.64501694
W        2.25318050       6.37288760      16.89815510
W       -0.00000000       7.96610950      16.89815510
W       -0.00000000       6.37288760      19.97178912
W        2.25318050       7.96610950      19.97178912
W        2.25318050       6.37288760      22.22492728
W       -0.00000000       7.96610950      22.22492728
W       -0.00000000       6.37288760      24.47805457
W        2.25318050       7.96610950      24.47805457
W        2.25318050       6.37288760      26.73119197
W       -0.00000000       7.96610950      26.73119197
W        4.50636100       6.37288760      28.98428657
W        2.25318050       7.96610950      28.98428657
W        2.25318050       6.37288760      31.23732960
W       -0.00000000       7.96610950      31.23732960
W       -0.00000000       6.37288760      33.49032589
W        2.25318050       7.96610950      33.49032589
W        2.25318050       6.37288760      35.74338832
W       -0.00000000       7.96610950      35.74338832
W        4.50636100      -0.00000000       1.12655590
W        6.75954150       1.59322190       1.12655590
W        6.75954150       0.00000000       3.37961833
W        9.01272200       1.59322190       3.37961833
W        4.50636100       0.00000000       5.63261462
W        6.75954150       1.59322190       5.63261462
W        6.75954150      -0.00000000       7.88565765
W        9.01272200       1.59322190       7.88565765
W        4.50636100      -0.00000000      10.13875225
W        6.75954150       1.59322190      10.13875225
W        6.75954150       0.00000000      12.39188965
W        9.01272200       1.59322190      12.39188965
W        9.01272200      -0.00000000      14.64501694
W        6.75954150       1.59322190      14.64501694
W        6.75954150       0.00000000      16.89815510
W        4.50636100       1.59322190      16.89815510
W        4.50636100      -0.00000000      19.97178912
W        6.75954150       1.59322190      19.97178912
W        6.75954150      -0.00000000      22.22492728
W        4.50636100       1.59322190      22.22492728
W        4.50636100       0.00000000      24.47805457
W        6.75954150       1.59322190      24.47805457
W        6.75954150       0.00000000      26.73119197
W        4.50636100       1.59322190      26.73119197
W        9.01272200      -0.00000000      28.98428657
W        6.75954150       1.59322190      28.98428657
W        6.75954150      -0.00000000      31.23732960
W        4.50636100       1.59322190      31.23732960
W        4.50636100       0.00000000      33.49032589
W        6.75954150       1.59322190      33.49032589
W        6.75954150      -0.00000000      35.74338832
W        4.50636100       1.59322190      35.74338832
W        4.50636100       3.18644380       1.12655590
W        6.75954150       4.77966570       1.12655590
W        6.75954150       3.18644380       3.37961833
W        9.01272200       4.77966570       3.37961833
W        4.50636100       3.18644380       5.63261462
W        6.75954150       4.77966570       5.63261462
W        6.75954150       3.18644380       7.88565765
W        9.01272200       4.77966570       7.88565765
W        4.50636100       3.18644380      10.13875225
W        6.75954150       4.77966570      10.13875225
W        6.75954150       3.18644380      12.39188965
W        9.01272200       4.77966570      12.39188965
W        9.01272200       3.18644380      14.64501694
W        6.75954150       4.77966570      14.64501694
W        6.75954150       3.18644380      16.89815510
W        4.50636100       4.77966570      16.89815510
W        4.50636100       3.18644380      19.97178912
W        6.75954150       4.77966570      19.97178912
W        6.75954150       3.18644380      22.22492728
W        4.50636100       4.77966570      22.22492728
W        4.50636100       3.18644380      24.47805457
W        6.75954150       4.77966570      24.47805457
W        6.75954150       3.18644380      26.73119197
W        4.50636100       4.77966570      26.73119197
W        9.01272200       3.18644380      28.98428657
W        6.75954150       4.77966570      28.98428657
W        6.75954150       3.18644380      31.23732960
W        4.50636100       4.77966570      31.23732960
W        4.50636100       3.18644380      33.49032589
W        6.75954150       4.77966570      33.49032589
W        6.75954150       3.18644380      35.74338832
W        4.50636100       4.77966570      35.74338832
W        4.50636100       6.37288760       1.12655590
W        6.75954150       7.96610950       1.12655590
W        6.75954150       6.37288760       3.37961833
W        9.01272200       7.96610950       3.37961833
W        4.50636100       6.37288760       5.63261462
W        6.75954150       7.96610950       5.63261462
W        6.75954150       6.37288760       7.88565765
W        9.01272200       7.96610950       7.88565765
W        4.50636100       6.37288760      10.13875225
W        6.75954150       7.96610950      10.13875225
W        6.75954150       6.37288760      12.39188965
W        9.01272200       7.96610950      12.39188965
W        9.01272200       6.37288760      14.64501694
W        6.75954150       7.96610950      14.64501694
W        6.75954150       6.37288760      16.89815510
W        4.50636100       7.96610950      16.89815510
W        4.50636100       6.37288760      19.97178912
W        6.75954150       7.96610950      19.97178912
W        6.75954150       6.37288760      22.22492728
W        4.50636100       7.96610950      22.22492728
W        4.50636100       6.37288760      24.47805457
W        6.75954150       7.96610950      24.47805457
W        6.75954150       6.37288760      26.73119197
W        4.50636100       7.96610950      26.73119197
W        9.01272200       6.37288760      28.98428657
W        6.75954150       7.96610950      28.98428657
W        6.75954150       6.37288760      31.23732960
W        4.50636100       7.96610950      31.23732960
W        4.50636100       6.37288760      33.49032589
W        6.75954150       7.96610950      33.49032589
W        6.75954150       6.37288760      35.74338832
W        4.50636100       7.96610950      35.74338832
W        9.01272200      -0.00000000       1.12655590
W       11.26590250       1.59322190       1.12655590
W       11.26590250       0.00000000       3.37961833
W       13.51908301       1.59322190       3.37961833
W        9.01272200      -0.00000000       5.63261462
W       11.26590250       1.59322190       5.63261462
W       11.26590250      -0.00000000       7.88565765
W       13.51908301       1.59322190       7.88565765
W        9.01272200      -0.00000000      10.13875225
W       11.26590250       1.59322190      10.13875225
W       11.26590250       0.00000000      12.39188965
W       13.51908301       1.59322190      12.39188965
W       13.51908301      -0.00000000      14.64501694
W       11.26590250       1.59322190      14.64501694
W       11.26590250      -0.00000000      16.89815510
W        9.01272200       1.59322190      16.89815510
W        9.01272200      -0.00000000      19.97178912
W       11.26590250       1.59322190      19.97178912
W       11.26590250       0.00000000      22.22492728
W        9.01272200       1.59322190      22.22492728
W        9.01272200       0.00000000      24.47805457
W       11.26590250       1.59322190      24.47805457
W       11.26590250       0.00000000      26.73119197
W        9.01272200       1.59322190      26.73119197
W       13.51908301       0.00000000      28.98428657
W       11.26590250       1.59322190      28.98428657
W       11.26590250      -0.00000000      31.23732960
W        9.01272200       1.59322190      31.23732960
W        9.01272200      -0.00000000      33.49032589
W       11.26590250       1.59322190      33.49032589
W       11.26590250      -0.00000000      35.74338832
W        9.01272200       1.59322190      35.74338832
W        9.01272200       3.18644380       1.12655590
W       11.26590250       4.77966570       1.12655590
W       11.26590250       3.18644380       3.37961833
W       13.51908301       4.77966570       3.37961833
W        9.01272200       3.18644380       5.63261462
W       11.26590250       4.77966570       5.63261462
W       11.26590250       3.18644380       7.88565765
W       13.51908301       4.77966570       7.88565765
W        9.01272200       3.18644380      10.13875225
W       11.26590250       4.77966570      10.13875225
W       11.26590250       3.18644380      12.39188965
W       13.51908301       4.77966570      12.39188965
W       13.51908301       3.18644380      14.64501694
W       11.26590250       4.77966570      14.64501694
W       11.26590250       3.18644380      16.89815510
W        9.01272200       4.77966570      16.89815510
W        9.01272200       3.18644380      19.97178912
W       11.26590250       4.77966570      19.97178912
W       11.26590250       3.18644380      22.22492728
W        9.01272200       4.77966570      22.22492728
W        9.01272200       3.18644380      24.47805457
W       11.26590250       4.77966570      24.47805457
W       11.26590250       3.18644380      26.73119197
W        9.01272200       4.77966570      26.73119197
W       13.51908301       3.18644380      28.98428657
W       11.26590250       4.77966570      28.98428657
W       11.26590250       3.18644380      31.23732960
W        9.01272200       4.77966570      31.23732960
W        9.01272200       3.18644380      33.49032589
W       11.26590250       4.77966570      33.49032589
W       11.26590250       3.18644380      35.74338832
W        9.01272200       4.77966570      35.74338832
W        9.01272200       6.37288760       1.12655590
W       11.26590250       7.96610950       1.12655590
W       11.26590250       6.37288760       3.37961833
W       13.51908301       7.96610950       3.37961833
W        9.01272200       6.37288760       5.63261462
W       11.26590250       7.96610950       5.63261462
W       11.26590250       6.37288760       7.88565765
W       13.51908301       7.96610950       7.88565765
W        9.01272200       6.37288760      10.13875225
W       11.26590250       7.96610950      10.13875225
W       11.26590250       6.37288760      12.39188965
W       13.51908301       7.96610950      12.39188965
W       13.51908301       6.37288760      14.64501694
W       11.26590250       7.96610950      14.64501694
W       11.26590250       6.37288760      16.89815510
W        9.01272200       7.96610950      16.89815510
W        9.01272200       6.37288760      19.97178912
W       11.26590250       7.96610950      19.97178912
W       11.26590250       6.37288760      22.22492728
W        9.01272200       7.96610950      22.22492728
W        9.01272200       6.37288760      24.47805457
W       11.26590250       7.96610950      24.47805457
W       11.26590250       6.37288760      26.73119197
W        9.01272200       7.96610950      26.73119197
W       13.51908301       6.37288760      28.98428657
W       11.26590250       7.96610950      28.98428657
W       11.26590250       6.37288760      31.23732960
W        9.01272200       7.96610950      31.23732960
W        9.01272200       6.37288760      33.49032589
W       11.26590250       7.96610950      33.49032589
W       11.26590250       6.37288760      35.74338832
W        9.01272200       7.96610950      35.74338832
288
Lattice="13.519083005276505 3.9762680028551066e-17 -4.0430281816947754e-17 2.832107032207403e-17 9.559331404516637 -2.7421228983415876e-17 -9.765279892702126e-17 -9.449974793418939e-17 36.972508321606675" Properties=species:S:1:pos:R:3 vacuum_gap_Ang=0.923076923076923 frame_index=9 pbc="T T T"
W       -0.00000000       0.00000000       1.12655590
W        2.25318050       1.59322190       1.12655590
W        2.25318050       0.00000000       3.37961833
W        4.50636100       1.59322190       3.37961833
W       -0.00000000       0.00000000       5.63261462
W        2.25318050       1.59322190       5.63261462
W        2.25318050      -0.00000000       7.88565765
W        4.50636100       1.59322190       7.88565765
W       -0.00000000       0.00000000      10.13875225
W        2.25318050       1.59322190      10.13875225
W        2.25318050      -0.00000000      12.39188965
W        4.50636100       1.59322190      12.39188965
W        4.50636100      -0.00000000      14.64501694
W        2.25318050       1.59322190      14.64501694
W        2.25318050       0.00000000      16.89815510
W       -0.00000000       1.59322190      16.89815510
W       -0.00000000       0.00000000      20.07435323
W        2.25318050       1.59322190      20.07435323
W        2.25318050      -0.00000000      22.32749138
W       -0.00000000       1.59322190      22.32749138
W       -0.00000000      -0.00000000      24.58061867
W        2.25318050       1.59322190      24.58061867
W        2.25318050       0.00000000      26.83375607
W       -0.00000000       1.59322190      26.83375607
W        4.50636100      -0.00000000      29.08685067
W        2.25318050       1.59322190      29.08685067
W        2.25318050      -0.00000000      31.33989370
W       -0.00000000       1.59322190      31.33989370
W       -0.00000000      -0.00000000      33.59288999
W        2.25318050       1.59322190      33.59288999
W        2.25318050       0.00000000      35.84595242
W       -0.00000000       1.59322190      35.84595242
W       -0.00000000       3.18644380       1.12655590
W        2.25318050       4.77966570       1.12655590
W        2.25318050       3.18644380       3.37961833
W        4.50636100       4.77966570       3.37961833
W       -0.00000000       3.18644380       5.63261462
W        2.25318050       4.77966570       5.63261462
W        2.25318050       3.18644380       7.88565765
W        4.50636100       4.77966570       7.88565765
W       -0.00000000       3.18644380      10.13875225
W        2.25318050       4.77966570      10.13875225
W        2.25318050       3.18644380      12.39188965
W        4.50636100       4.77966570      12.39188965
W        4.50636100       3.18644380      14.64501694
W        2.25318050       4.77966570      14.64501694
W        2.25318050       3.18644380      16.89815510
W       -0.00000000       4.77966570      16.89815510
W       -0.00000000       3.18644380      20.07435323
W        2.25318050       4.77966570      20.07435323
W        2.25318050       3.18644380      22.32749138
W       -0.00000000       4.77966570      22.32749138
W       -0.00000000       3.18644380      24.58061867
W        2.25318050       4.77966570      24.58061867
W        2.25318050       3.18644380      26.83375607
W       -0.00000000       4.77966570      26.83375607
W        4.50636100       3.18644380      29.08685067
W        2.25318050       4.77966570      29.08685067
W        2.25318050       3.18644380      31.33989370
W       -0.00000000       4.77966570      31.33989370
W       -0.00000000       3.18644380      33.59288999
W        2.25318050       4.77966570      33.59288999
W        2.25318050       3.18644380      35.84595242
W       -0.00000000       4.77966570      35.84595242
W       -0.00000000       6.37288760       1.12655590
W        2.25318050       7.96610950       1.12655590
W        2.25318050       6.37288760       3.37961833
W        4.50636100       7.96610950       3.37961833
W       -0.00000000       6.37288760       5.63261462
W        2.25318050       7.96610950       5.63261462
W        2.25318050       6.37288760       7.88565765
W        4.50636100       7.96610950       7.88565765
W        0.00000000       6.37288760      10.13875225
W        2.25318050       7.96610950      10.13875225
W        2.25318050       6.37288760      12.39188965
W        4.50636100       7.96610950      12.39188965
W        4.50636100       6.37288760      14.64501694
W        2.25318050       7.96610950      14.64501694
W        2.25318050       6.37288760      16.89815510
W       -0.00000000       7.96610950      16.89815510
W       -0.00000000       6.37288760      20.07435323
W        2.25318050       7.96610950      20.07435323
W        2.25318050       6.37288760      22.32749138
W       -0.00000000       7.96610950      22.32749138
W       -0.00000000       6.37288760      24.58061867
W        2.25318050       7.96610950      24.58061867
W        2.25318050       6.37288760      26.83375607
W       -0.00000000       7.96610950      26.83375607
W        4.50636100       6.37288760      29.08685067
W        2.25318050       7.96610950      29.08685067
W        2.25318050       6.37288760      31.33989370
W       -0.00000000       7.96610950      31.33989370
W       -0.00000000       6.37288760      33.59288999
W        2.25318050       7.96610950      33.59288999
W        2.25318050       6.37288760      35.84595242
W       -0.00000000       7.96610950      35.84595242
W        4.50636100      -0.00000000       1.12655590
W        6.75954150       1.59322190       1.12655590
W        6.75954150       0.00000000       3.37961833
W        9.01272200       1.59322190       3.37961833
W        4.50636100       0.00000000       5.63261462
W        6.75954150       1.59322190       5.63261462
W        6.75954150      -0.00000000       7.88565765
W        9.01272200       1.59322190       7.88565765
W        4.50636100      -0.00000000      10.13875225
W        6.75954150       1.59322190      10.13875225
W        6.75954150       0.00000000      12.39188965
W        9.01272200       1.59322190      12.39188965
W        9.01272200      -0.00000000      14.64501694
W        6.75954150       1.59322190      14.64501694
W        6.75954150       0.00000000      16.89815510
W        4.50636100       1.59322190      16.89815510
W        4.50636100      -0.00000000      20.07435323
W        6.75954150       1.59322190      20.07435323
W        6.75954150      -0.00000000      22.32749138
W        4.50636100       1.59322190      22.32749138
W        4.50636100       0.00000000      24.58061867
W        6.75954150       1.59322190      24.58061867
W        6.75954150       0.00000000      26.83375607
W        4.50636100       1.59322190      26.83375607
W        9.01272200      -0.00000000      29.08685067
W        6.75954150       1.59322190      29.08685067
W        6.75954150      -0.00000000      31.33989370
W        4.50636100       1.59322190      31.33989370
W        4.50636100       0.00000000      33.59288999
W        6.75954150       1.59322190      33.59288999
W        6.75954150      -0.00000000      35.84595242
W        4.50636100       1.59322190      35.84595242
W        4.50636100       3.18644380       1.12655590
W        6.75954150       4.77966570       1.12655590
W        6.75954150       3.18644380       3.37961833
W        9.01272200       4.77966570       3.37961833
W        4.50636100       3.18644380       5.63261462
W        6.75954150       4.77966570       5.63261462
W        6.75954150       3.18644380       7.88565765
W        9.01272200       4.77966570       7.88565765
W        4.50636100       3.18644380      10.13875225
W        6.75954150       4.77966570      10.13875225
W        6.75954150       3.18644380      12.39188965
W        9.01272200       4.77966570      12.39188965
W        9.01272200       3.18644380      14.64501694
W        6.75954150       4.77966570      14.64501694
W        6.75954150       3.18644380      16.89815510
W        4.50636100       4.77966570      16.89815510
W        4.50636100       3.18644380      20.07435323
W        6.75954150       4.77966570      20.07435323
W        6.75954150       3.18644380      22.32749138
W        4.50636100       4.77966570      22.32749138
W        4.50636100       3.18644380      24.58061867
W        6.75954150       4.77966570      24.58061867
W        6.75954150       3.18644380      26.83375607
W        4.50636100       4.77966570      26.83375607
W        9.01272200       3.18644380      29.08685067
W        6.75954150       4.77966570      29.08685067
W        6.75954150       3.18644380      31.33989370
W        4.50636100       4.77966570      31.33989370
W        4.50636100       3.18644380      33.59288999
W        6.75954150       4.77966570      33.59288999
W        6.75954150       3.18644380      35.84595242
W        4.50636100       4.77966570      35.84595242
W        4.50636100       6.37288760       1.12655590
W        6.75954150       7.96610950       1.12655590
W        6.75954150       6.37288760       3.37961833
W        9.01272200       7.96610950       3.37961833
W        4.50636100       6.37288760       5.63261462
W        6.75954150       7.96610950       5.63261462
W        6.75954150       6.37288760       7.88565765
W        9.01272200       7.96610950       7.88565765
W        4.50636100       6.37288760      10.13875225
W        6.75954150       7.96610950      10.13875225
W        6.75954150       6.37288760      12.39188965
W        9.01272200       7.96610950      12.39188965
W        9.01272200       6.37288760      14.64501694
W        6.75954150       7.96610950      14.64501694
W        6.75954150       6.37288760      16.89815510
W        4.50636100       7.96610950      16.89815510
W        4.50636100       6.37288760      20.07435323
W        6.75954150       7.96610950      20.07435323
W        6.75954150       6.37288760      22.32749138
W        4.50636100       7.96610950      22.32749138
W        4.50636100       6.37288760      24.58061867
W        6.75954150       7.96610950      24.58061867
W        6.75954150       6.37288760      26.83375607
W        4.50636100       7.96610950      26.83375607
W        9.01272200       6.37288760      29.08685067
W        6.75954150       7.96610950      29.08685067
W        6.75954150       6.37288760      31.33989370
W        4.50636100       7.96610950      31.33989370
W        4.50636100       6.37288760      33.59288999
W        6.75954150       7.96610950      33.59288999
W        6.75954150       6.37288760      35.84595242
W        4.50636100       7.96610950      35.84595242
W        9.01272200      -0.00000000       1.12655590
W       11.26590250       1.59322190       1.12655590
W       11.26590250       0.00000000       3.37961833
W       13.51908301       1.59322190       3.37961833
W        9.01272200      -0.00000000       5.63261462
W       11.26590250       1.59322190       5.63261462
W       11.26590250      -0.00000000       7.88565765
W       13.51908301       1.59322190       7.88565765
W        9.01272200      -0.00000000      10.13875225
W       11.26590250       1.59322190      10.13875225
W       11.26590250       0.00000000      12.39188965
W       13.51908301       1.59322190      12.39188965
W       13.51908301      -0.00000000      14.64501694
W       11.26590250       1.59322190      14.64501694
W       11.26590250      -0.00000000      16.89815510
W        9.01272200       1.59322190      16.89815510
W        9.01272200      -0.00000000      20.07435323
W       11.26590250       1.59322190      20.07435323
W       11.26590250       0.00000000      22.32749138
W        9.01272200       1.59322190      22.32749138
W        9.01272200       0.00000000      24.58061867
W       11.26590250       1.59322190      24.58061867
W       11.26590250       0.00000000      26.83375607
W        9.01272200       1.59322190      26.83375607
W       13.51908301       0.00000000      29.08685067
W       11.26590250       1.59322190      29.08685067
W       11.26590250      -0.00000000      31.33989370
W        9.01272200       1.59322190      31.33989370
W        9.01272200      -0.00000000      33.59288999
W       11.26590250       1.59322190      33.59288999
W       11.26590250      -0.00000000      35.84595242
W        9.01272200       1.59322190      35.84595242
W        9.01272200       3.18644380       1.12655590
W       11.26590250       4.77966570       1.12655590
W       11.26590250       3.18644380       3.37961833
W       13.51908301       4.77966570       3.37961833
W        9.01272200       3.18644380       5.63261462
W       11.26590250       4.77966570       5.63261462
W       11.26590250       3.18644380       7.88565765
W       13.51908301       4.77966570       7.88565765
W        9.01272200       3.18644380      10.13875225
W       11.26590250       4.77966570      10.13875225
W       11.26590250       3.18644380      12.39188965
W       13.51908301       4.77966570      12.39188965
W       13.51908301       3.18644380      14.64501694
W       11.26590250       4.77966570      14.64501694
W       11.26590250       3.18644380      16.89815510
W        9.01272200       4.77966570      16.89815510
W        9.01272200       3.18644380      20.07435323
W       11.26590250       4.77966570      20.07435323
W       11.26590250       3.18644380      22.32749138
W        9.01272200       4.77966570      22.32749138
W        9.01272200       3.18644380      24.58061867
W       11.26590250       4.77966570      24.58061867
W       11.26590250       3.18644380      26.83375607
W        9.01272200       4.77966570      26.83375607
W       13.51908301       3.18644380      29.08685067
W       11.26590250       4.77966570      29.08685067
W       11.26590250       3.18644380      31.33989370
W        9.01272200       4.77966570      31.33989370
W        9.01272200       3.18644380      33.59288999
W       11.26590250       4.77966570      33.59288999
W       11.26590250       3.18644380      35.84595242
W        9.01272200       4.77966570      35.84595242
W        9.01272200       6.37288760       1.12655590
W       11.26590250       7.96610950       1.12655590
W       11.26590250       6.37288760       3.37961833
W       13.51908301       7.96610950       3.37961833
W        9.01272200       6.37288760       5.63261462
W       11.26590250       7.96610950       5.63261462
W       11.26590250       6.37288760       7.88565765
W       13.51908301       7.96610950       7.88565765
W        9.01272200       6.37288760      10.13875225
W       11.26590250       7.96610950      10.13875225
W       11.26590250       6.37288760      12.39188965
W       13.51908301       7.96610950      12.39188965
W       13.51908301       6.37288760      14.64501694
W       11.26590250       7.96610950      14.64501694
W       11.26590250       6.37288760      16.89815510
W        9.01272200       7.96610950      16.89815510
W        9.01272200       6.37288760      20.07435323
W       11.26590250       7.96610950      20.07435323
W       11.26590250       6.37288760      22.32749138
W        9.01272200       7.96610950      22.32749138
W        9.01272200       6.37288760      24.58061867
W       11.26590250       7.96610950      24.58061867
W       11.26590250       6.37288760      26.83375607
W        9.01272200       7.96610950      26.83375607
W       13.51908301       6.37288760      29.08685067
W       11.26590250       7.96610950      29.08685067
W       11.26590250       6.37288760      31.33989370
W        9.01272200       7.96610950      31.33989370
W        9.01272200       6.37288760      33.59288999
W       11.26590250       7.96610950      33.59288999
W       11.26590250       6.37288760      35.84595242
W        9.01272200       7.96610950      35.84595242
288
Lattice="13.519083005276505 3.9762680028551066e-17 -4.0430281816947754e-17 2.832107032207403e-17 9.559331404516637 -2.7421228983415876e-17 -9.765279892702126e-17 -9.449974793418939e-17 37.075072424170784" Properties=species:S:1:pos:R:3 vacuum_gap_Ang=1.0256410256410255 frame_index=10 pbc="T T T"
W       -0.00000000       0.00000000       1.12655590
W        2.25318050       1.59322190       1.12655590
W        2.25318050       0.00000000       3.37961833
W        4.50636100       1.59322190       3.37961833
W       -0.00000000       0.00000000       5.63261462
W        2.25318050       1.59322190       5.63261462
W        2.25318050      -0.00000000       7.88565765
W        4.50636100       1.59322190       7.88565765
W       -0.00000000       0.00000000      10.13875225
W        2.25318050       1.59322190      10.13875225
W        2.25318050      -0.00000000      12.39188965
W        4.50636100       1.59322190      12.39188965
W        4.50636100      -0.00000000      14.64501694
W        2.25318050       1.59322190      14.64501694
W        2.25318050       0.00000000      16.89815510
W       -0.00000000       1.59322190      16.89815510
W       -0.00000000       0.00000000      20.17691733
W        2.25318050       1.59322190      20.17691733
W        2.25318050      -0.00000000      22.43005548
W       -0.00000000       1.59322190      22.43005548
W       -0.00000000      -0.00000000      24.68318278
W        2.25318050       1.59322190      24.68318278
W        2.25318050       0.00000000      26.93632017
W       -0.00000000       1.59322190      26.93632017
W        4.50636100      -0.00000000      29.18941477
W        2.25318050       1.59322190      29.18941477
W        2.25318050      -0.00000000      31.44245780
W       -0.00000000       1.59322190      31.44245780
W       -0.00000000      -0.00000000      33.69545409
W        2.25318050       1.59322190      33.69545409
W        2.25318050       0.00000000      35.94851653
W       -0.00000000       1.59322190      35.94851653
W       -0.00000000       3.18644380       1.12655590
W        2.25318050       4.77966570       1.12655590
W        2.25318050       3.18644380       3.37961833
W        4.50636100       4.77966570       3.37961833
W       -0.00000000       3.18644380       5.63261462
W        2.25318050       4.77966570       5.63261462
W        2.25318050       3.18644380       7.88565765
W        4.50636100       4.77966570       7.88565765
W       -0.00000000       3.18644380      10.13875225
W        2.25318050       4.77966570      10.13875225
W        2.25318050       3.18644380      12.39188965
W        4.50636100       4.77966570      12.39188965
W        4.50636100       3.18644380      14.64501694
W        2.25318050       4.77966570      14.64501694
W        2.25318050       3.18644380      16.89815510
W       -0.00000000       4.77966570      16.89815510
W       -0.00000000       3.18644380      20.17691733
W        2.25318050       4.77966570      20.17691733
W        2.25318050       3.18644380      22.43005548
W       -0.00000000       4.77966570      22.43005548
W       -0.00000000       3.18644380      24.68318278
W        2.25318050       4.77966570      24.68318278
W        2.25318050       3.18644380      26.93632017
W       -0.00000000       4.77966570      26.93632017
W        4.50636100       3.18644380      29.18941477
W        2.25318050       4.77966570      29.18941477
W        2.25318050       3.18644380      31.44245780
W       -0.00000000       4.77966570      31.44245780
W       -0.00000000       3.18644380      33.69545409
W        2.25318050       4.77966570      33.69545409
W        2.25318050       3.18644380      35.94851653
W       -0.00000000       4.77966570      35.94851653
W       -0.00000000       6.37288760       1.12655590
W        2.25318050       7.96610950       1.12655590
W        2.25318050       6.37288760       3.37961833
W        4.50636100       7.96610950       3.37961833
W       -0.00000000       6.37288760       5.63261462
W        2.25318050       7.96610950       5.63261462
W        2.25318050       6.37288760       7.88565765
W        4.50636100       7.96610950       7.88565765
W        0.00000000       6.37288760      10.13875225
W        2.25318050       7.96610950      10.13875225
W        2.25318050       6.37288760      12.39188965
W        4.50636100       7.96610950      12.39188965
W        4.50636100       6.37288760      14.64501694
W        2.25318050       7.96610950      14.64501694
W        2.25318050       6.37288760      16.89815510
W       -0.00000000       7.96610950      16.89815510
W       -0.00000000       6.37288760      20.17691733
W        2.25318050       7.96610950      20.17691733
W        2.25318050       6.37288760      22.43005548
W       -0.00000000       7.96610950      22.43005548
W       -0.00000000       6.37288760      24.68318278
W        2.25318050       7.96610950      24.68318278
W        2.25318050       6.37288760      26.93632017
W       -0.00000000       7.96610950      26.93632017
W        4.50636100       6.37288760      29.18941477
W        2.25318050       7.96610950      29.18941477
W        2.25318050       6.37288760      31.44245780
W       -0.00000000       7.96610950      31.44245780
W       -0.00000000       6.37288760      33.69545409
W        2.25318050       7.96610950      33.69545409
W        2.25318050       6.37288760      35.94851653
W       -0.00000000       7.96610950      35.94851653
W        4.50636100      -0.00000000       1.12655590
W        6.75954150       1.59322190       1.12655590
W        6.75954150       0.00000000       3.37961833
W        9.01272200       1.59322190       3.37961833
W        4.50636100       0.00000000       5.63261462
W        6.75954150       1.59322190       5.63261462
W        6.75954150      -0.00000000       7.88565765
W        9.01272200       1.59322190       7.88565765
W        4.50636100      -0.00000000      10.13875225
W        6.75954150       1.59322190      10.13875225
W        6.75954150       0.00000000      12.39188965
W        9.01272200       1.59322190      12.39188965
W        9.01272200      -0.00000000      14.64501694
W        6.75954150       1.59322190      14.64501694
W        6.75954150       0.00000000      16.89815510
W        4.50636100       1.59322190      16.89815510
W        4.50636100      -0.00000000      20.17691733
W        6.75954150       1.59322190      20.17691733
W        6.75954150      -0.00000000      22.43005548
W        4.50636100       1.59322190      22.43005548
W        4.50636100       0.00000000      24.68318278
W        6.75954150       1.59322190      24.68318278
W        6.75954150       0.00000000      26.93632017
W        4.50636100       1.59322190      26.93632017
W        9.01272200      -0.00000000      29.18941477
W        6.75954150       1.59322190      29.18941477
W        6.75954150      -0.00000000      31.44245780
W        4.50636100       1.59322190      31.44245780
W        4.50636100       0.00000000      33.69545409
W        6.75954150       1.59322190      33.69545409
W        6.75954150      -0.00000000      35.94851653
W        4.50636100       1.59322190      35.94851653
W        4.50636100       3.18644380       1.12655590
W        6.75954150       4.77966570       1.12655590
W        6.75954150       3.18644380       3.37961833
W        9.01272200       4.77966570       3.37961833
W        4.50636100       3.18644380       5.63261462
W        6.75954150       4.77966570       5.63261462
W        6.75954150       3.18644380       7.88565765
W        9.01272200       4.77966570       7.88565765
W        4.50636100       3.18644380      10.13875225
W        6.75954150       4.77966570      10.13875225
W        6.75954150       3.18644380      12.39188965
W        9.01272200       4.77966570      12.39188965
W        9.01272200       3.18644380      14.64501694
W        6.75954150       4.77966570      14.64501694
W        6.75954150       3.18644380      16.89815510
W        4.50636100       4.77966570      16.89815510
W        4.50636100       3.18644380      20.17691733
W        6.75954150       4.77966570      20.17691733
W        6.75954150       3.18644380      22.43005548
W        4.50636100       4.77966570      22.43005548
W        4.50636100       3.18644380      24.68318278
W        6.75954150       4.77966570      24.68318278
W        6.75954150       3.18644380      26.93632017
W        4.50636100       4.77966570      26.93632017
W        9.01272200       3.18644380      29.18941477
W        6.75954150       4.77966570      29.18941477
W        6.75954150       3.18644380      31.44245780
W        4.50636100       4.77966570      31.44245780
W        4.50636100       3.18644380      33.69545409
W        6.75954150       4.77966570      33.69545409
W        6.75954150       3.18644380      35.94851653
W        4.50636100       4.77966570      35.94851653
W        4.50636100       6.37288760       1.12655590
W        6.75954150       7.96610950       1.12655590
W        6.75954150       6.37288760       3.37961833
W        9.01272200       7.96610950       3.37961833
W        4.50636100       6.37288760       5.63261462
W        6.75954150       7.96610950       5.63261462
W        6.75954150       6.37288760       7.88565765
W        9.01272200       7.96610950       7.88565765
W        4.50636100       6.37288760      10.13875225
W        6.75954150       7.96610950      10.13875225
W        6.75954150       6.37288760      12.39188965
W        9.01272200       7.96610950      12.39188965
W        9.01272200       6.37288760      14.64501694
W        6.75954150       7.96610950      14.64501694
W        6.75954150       6.37288760      16.89815510
W        4.50636100       7.96610950      16.89815510
W        4.50636100       6.37288760      20.17691733
W        6.75954150       7.96610950      20.17691733
W        6.75954150       6.37288760      22.43005548
W        4.50636100       7.96610950      22.43005548
W        4.50636100       6.37288760      24.68318278
W        6.75954150       7.96610950      24.68318278
W        6.75954150       6.37288760      26.93632017
W        4.50636100       7.96610950      26.93632017
W        9.01272200       6.37288760      29.18941477
W        6.75954150       7.96610950      29.18941477
W        6.75954150       6.37288760      31.44245780
W        4.50636100       7.96610950      31.44245780
W        4.50636100       6.37288760      33.69545409
W        6.75954150       7.96610950      33.69545409
W        6.75954150       6.37288760      35.94851653
W        4.50636100       7.96610950      35.94851653
W        9.01272200      -0.00000000       1.12655590
W       11.26590250       1.59322190       1.12655590
W       11.26590250       0.00000000       3.37961833
W       13.51908301       1.59322190       3.37961833
W        9.01272200      -0.00000000       5.63261462
W       11.26590250       1.59322190       5.63261462
W       11.26590250      -0.00000000       7.88565765
W       13.51908301       1.59322190       7.88565765
W        9.01272200      -0.00000000      10.13875225
W       11.26590250       1.59322190      10.13875225
W       11.26590250       0.00000000      12.39188965
W       13.51908301       1.59322190      12.39188965
W       13.51908301      -0.00000000      14.64501694
W       11.26590250       1.59322190      14.64501694
W       11.26590250      -0.00000000      16.89815510
W        9.01272200       1.59322190      16.89815510
W        9.01272200      -0.00000000      20.17691733
W       11.26590250       1.59322190      20.17691733
W       11.26590250       0.00000000      22.43005548
W        9.01272200       1.59322190      22.43005548
W        9.01272200       0.00000000      24.68318278
W       11.26590250       1.59322190      24.68318278
W       11.26590250       0.00000000      26.93632017
W        9.01272200       1.59322190      26.93632017
W       13.51908301       0.00000000      29.18941477
W       11.26590250       1.59322190      29.18941477
W       11.26590250      -0.00000000      31.44245780
W        9.01272200       1.59322190      31.44245780
W        9.01272200      -0.00000000      33.69545409
W       11.26590250       1.59322190      33.69545409
W       11.26590250      -0.00000000      35.94851653
W        9.01272200       1.59322190      35.94851653
W        9.01272200       3.18644380       1.12655590
W       11.26590250       4.77966570       1.12655590
W       11.26590250       3.18644380       3.37961833
W       13.51908301       4.77966570       3.37961833
W        9.01272200       3.18644380       5.63261462
W       11.26590250       4.77966570       5.63261462
W       11.26590250       3.18644380       7.88565765
W       13.51908301       4.77966570       7.88565765
W        9.01272200       3.18644380      10.13875225
W       11.26590250       4.77966570      10.13875225
W       11.26590250       3.18644380      12.39188965
W       13.51908301       4.77966570      12.39188965
W       13.51908301       3.18644380      14.64501694
W       11.26590250       4.77966570      14.64501694
W       11.26590250       3.18644380      16.89815510
W        9.01272200       4.77966570      16.89815510
W        9.01272200       3.18644380      20.17691733
W       11.26590250       4.77966570      20.17691733
W       11.26590250       3.18644380      22.43005548
W        9.01272200       4.77966570      22.43005548
W        9.01272200       3.18644380      24.68318278
W       11.26590250       4.77966570      24.68318278
W       11.26590250       3.18644380      26.93632017
W        9.01272200       4.77966570      26.93632017
W       13.51908301       3.18644380      29.18941477
W       11.26590250       4.77966570      29.18941477
W       11.26590250       3.18644380      31.44245780
W        9.01272200       4.77966570      31.44245780
W        9.01272200       3.18644380      33.69545409
W       11.26590250       4.77966570      33.69545409
W       11.26590250       3.18644380      35.94851653
W        9.01272200       4.77966570      35.94851653
W        9.01272200       6.37288760       1.12655590
W       11.26590250       7.96610950       1.12655590
W       11.26590250       6.37288760       3.37961833
W       13.51908301       7.96610950       3.37961833
W        9.01272200       6.37288760       5.63261462
W       11.26590250       7.96610950       5.63261462
W       11.26590250       6.37288760       7.88565765
W       13.51908301       7.96610950       7.88565765
W        9.01272200       6.37288760      10.13875225
W       11.26590250       7.96610950      10.13875225
W       11.26590250       6.37288760      12.39188965
W       13.51908301       7.96610950      12.39188965
W       13.51908301       6.37288760      14.64501694
W       11.26590250       7.96610950      14.64501694
W       11.26590250       6.37288760      16.89815510
W        9.01272200       7.96610950      16.89815510
W        9.01272200       6.37288760      20.17691733
W       11.26590250       7.96610950      20.17691733
W       11.26590250       6.37288760      22.43005548
W        9.01272200       7.96610950      22.43005548
W        9.01272200       6.37288760      24.68318278
W       11.26590250       7.96610950      24.68318278
W       11.26590250       6.37288760      26.93632017
W        9.01272200       7.96610950      26.93632017
W       13.51908301       6.37288760      29.18941477
W       11.26590250       7.96610950      29.18941477
W       11.26590250       6.37288760      31.44245780
W        9.01272200       7.96610950      31.44245780
W        9.01272200       6.37288760      33.69545409
W       11.26590250       7.96610950      33.69545409
W       11.26590250       6.37288760      35.94851653
W        9.01272200       7.96610950      35.94851653
288
Lattice="13.519083005276505 3.9762680028551066e-17 -4.0430281816947754e-17 2.832107032207403e-17 9.559331404516637 -2.7421228983415876e-17 -9.765279892702126e-17 -9.449974793418939e-17 37.17763652673489" Properties=species:S:1:pos:R:3 vacuum_gap_Ang=1.1282051282051282 frame_index=11 pbc="T T T"
W       -0.00000000       0.00000000       1.12655590
W        2.25318050       1.59322190       1.12655590
W        2.25318050       0.00000000       3.37961833
W        4.50636100       1.59322190       3.37961833
W       -0.00000000       0.00000000       5.63261462
W        2.25318050       1.59322190       5.63261462
W        2.25318050      -0.00000000       7.88565765
W        4.50636100       1.59322190       7.88565765
W       -0.00000000       0.00000000      10.13875225
W        2.25318050       1.59322190      10.13875225
W        2.25318050      -0.00000000      12.39188965
W        4.50636100       1.59322190      12.39188965
W        4.50636100      -0.00000000      14.64501694
W        2.25318050       1.59322190      14.64501694
W        2.25318050       0.00000000      16.89815510
W       -0.00000000       1.59322190      16.89815510
W       -0.00000000       0.00000000      20.27948143
W        2.25318050       1.59322190      20.27948143
W        2.25318050      -0.00000000      22.53261959
W       -0.00000000       1.59322190      22.53261959
W       -0.00000000      -0.00000000      24.78574688
W        2.25318050       1.59322190      24.78574688
W        2.25318050       0.00000000      27.03888427
W       -0.00000000       1.59322190      27.03888427
W        4.50636100      -0.00000000      29.29197888
W        2.25318050       1.59322190      29.29197888
W        2.25318050      -0.00000000      31.54502190
W       -0.00000000       1.59322190      31.54502190
W       -0.00000000      -0.00000000      33.79801819
W        2.25318050       1.59322190      33.79801819
W        2.25318050       0.00000000      36.05108063
W       -0.00000000       1.59322190      36.05108063
W       -0.00000000       3.18644380       1.12655590
W        2.25318050       4.77966570       1.12655590
W        2.25318050       3.18644380       3.37961833
W        4.50636100       4.77966570       3.37961833
W       -0.00000000       3.18644380       5.63261462
W        2.25318050       4.77966570       5.63261462
W        2.25318050       3.18644380       7.88565765
W        4.50636100       4.77966570       7.88565765
W       -0.00000000       3.18644380      10.13875225
W        2.25318050       4.77966570      10.13875225
W        2.25318050       3.18644380      12.39188965
W        4.50636100       4.77966570      12.39188965
W        4.50636100       3.18644380      14.64501694
W        2.25318050       4.77966570      14.64501694
W        2.25318050       3.18644380      16.89815510
W       -0.00000000       4.77966570      16.89815510
W       -0.00000000       3.18644380      20.27948143
W        2.25318050       4.77966570      20.27948143
W        2.25318050       3.18644380      22.53261959
W       -0.00000000       4.77966570      22.53261959
W       -0.00000000       3.18644380      24.78574688
W        2.25318050       4.77966570      24.78574688
W        2.25318050       3.18644380      27.03888427
W       -0.00000000       4.77966570      27.03888427
W        4.50636100       3.18644380      29.29197888
W        2.25318050       4.77966570      29.29197888
W        2.25318050       3.18644380      31.54502190
W       -0.00000000       4.77966570      31.54502190
W       -0.00000000       3.18644380      33.79801819
W        2.25318050       4.77966570      33.79801819
W        2.25318050       3.18644380      36.05108063
W       -0.00000000       4.77966570      36.05108063
W       -0.00000000       6.37288760       1.12655590
W        2.25318050       7.96610950       1.12655590
W        2.25318050       6.37288760       3.37961833
W        4.50636100       7.96610950       3.37961833
W       -0.00000000       6.37288760       5.63261462
W        2.25318050       7.96610950       5.63261462
W        2.25318050       6.37288760       7.88565765
W        4.50636100       7.96610950       7.88565765
W        0.00000000       6.37288760      10.13875225
W        2.25318050       7.96610950      10.13875225
W        2.25318050       6.37288760      12.39188965
W        4.50636100       7.96610950      12.39188965
W        4.50636100       6.37288760      14.64501694
W        2.25318050       7.96610950      14.64501694
W        2.25318050       6.37288760      16.89815510
W       -0.00000000       7.96610950      16.89815510
W       -0.00000000       6.37288760      20.27948143
W        2.25318050       7.96610950      20.27948143
W        2.25318050       6.37288760      22.53261959
W       -0.00000000       7.96610950      22.53261959
W       -0.00000000       6.37288760      24.78574688
W        2.25318050       7.96610950      24.78574688
W        2.25318050       6.37288760      27.03888427
W       -0.00000000       7.96610950      27.03888427
W        4.50636100       6.37288760      29.29197888
W        2.25318050       7.96610950      29.29197888
W        2.25318050       6.37288760      31.54502190
W       -0.00000000       7.96610950      31.54502190
W       -0.00000000       6.37288760      33.79801819
W        2.25318050       7.96610950      33.79801819
W        2.25318050       6.37288760      36.05108063
W       -0.00000000       7.96610950      36.05108063
W        4.50636100      -0.00000000       1.12655590
W        6.75954150       1.59322190       1.12655590
W        6.75954150       0.00000000       3.37961833
W        9.01272200       1.59322190       3.37961833
W        4.50636100       0.00000000       5.63261462
W        6.75954150       1.59322190       5.63261462
W        6.75954150      -0.00000000       7.88565765
W        9.01272200       1.59322190       7.88565765
W        4.50636100      -0.00000000      10.13875225
W        6.75954150       1.59322190      10.13875225
W        6.75954150       0.00000000      12.39188965
W        9.01272200       1.59322190      12.39188965
W        9.01272200      -0.00000000      14.64501694
W        6.75954150       1.59322190      14.64501694
W        6.75954150       0.00000000      16.89815510
W        4.50636100       1.59322190      16.89815510
W        4.50636100      -0.00000000      20.27948143
W        6.75954150       1.59322190      20.27948143
W        6.75954150      -0.00000000      22.53261959
W        4.50636100       1.59322190      22.53261959
W        4.50636100       0.00000000      24.78574688
W        6.75954150       1.59322190      24.78574688
W        6.75954150       0.00000000      27.03888427
W        4.50636100       1.59322190      27.03888427
W        9.01272200      -0.00000000      29.29197888
W        6.75954150       1.59322190      29.29197888
W        6.75954150      -0.00000000      31.54502190
W        4.50636100       1.59322190      31.54502190
W        4.50636100       0.00000000      33.79801819
W        6.75954150       1.59322190      33.79801819
W        6.75954150      -0.00000000      36.05108063
W        4.50636100       1.59322190      36.05108063
W        4.50636100       3.18644380       1.12655590
W        6.75954150       4.77966570       1.12655590
W        6.75954150       3.18644380       3.37961833
W        9.01272200       4.77966570       3.37961833
W        4.50636100       3.18644380       5.63261462
W        6.75954150       4.77966570       5.63261462
W        6.75954150       3.18644380       7.88565765
W        9.01272200       4.77966570       7.88565765
W        4.50636100       3.18644380      10.13875225
W        6.75954150       4.77966570      10.13875225
W        6.75954150       3.18644380      12.39188965
W        9.01272200       4.77966570      12.39188965
W        9.01272200       3.18644380      14.64501694
W        6.75954150       4.77966570      14.64501694
W        6.75954150       3.18644380      16.89815510
W        4.50636100       4.77966570      16.89815510
W        4.50636100       3.18644380      20.27948143
W        6.75954150       4.77966570      20.27948143
W        6.75954150       3.18644380      22.53261959
W        4.50636100       4.77966570      22.53261959
W        4.50636100       3.18644380      24.78574688
W        6.75954150       4.77966570      24.78574688
W        6.75954150       3.18644380      27.03888427
W        4.50636100       4.77966570      27.03888427
W        9.01272200       3.18644380      29.29197888
W        6.75954150       4.77966570      29.29197888
W        6.75954150       3.18644380      31.54502190
W        4.50636100       4.77966570      31.54502190
W        4.50636100       3.18644380      33.79801819
W        6.75954150       4.77966570      33.79801819
W        6.75954150       3.18644380      36.05108063
W        4.50636100       4.77966570      36.05108063
W        4.50636100       6.37288760       1.12655590
W        6.75954150       7.96610950       1.12655590
W        6.75954150       6.37288760       3.37961833
W        9.01272200       7.96610950       3.37961833
W        4.50636100       6.37288760       5.63261462
W        6.75954150       7.96610950       5.63261462
W        6.75954150       6.37288760       7.88565765
W        9.01272200       7.96610950       7.88565765
W        4.50636100       6.37288760      10.13875225
W        6.75954150       7.96610950      10.13875225
W        6.75954150       6.37288760      12.39188965
W        9.01272200       7.96610950      12.39188965
W        9.01272200       6.37288760      14.64501694
W        6.75954150       7.96610950      14.64501694
W        6.75954150       6.37288760      16.89815510
W        4.50636100       7.96610950      16.89815510
W        4.50636100       6.37288760      20.27948143
W        6.75954150       7.96610950      20.27948143
W        6.75954150       6.37288760      22.53261959
W        4.50636100       7.96610950      22.53261959
W        4.50636100       6.37288760      24.78574688
W        6.75954150       7.96610950      24.78574688
W        6.75954150       6.37288760      27.03888427
W        4.50636100       7.96610950      27.03888427
W        9.01272200       6.37288760      29.29197888
W        6.75954150       7.96610950      29.29197888
W        6.75954150       6.37288760      31.54502190
W        4.50636100       7.96610950      31.54502190
W        4.50636100       6.37288760      33.79801819
W        6.75954150       7.96610950      33.79801819
W        6.75954150       6.37288760      36.05108063
W        4.50636100       7.96610950      36.05108063
W        9.01272200      -0.00000000       1.12655590
W       11.26590250       1.59322190       1.12655590
W       11.26590250       0.00000000       3.37961833
W       13.51908301       1.59322190       3.37961833
W        9.01272200      -0.00000000       5.63261462
W       11.26590250       1.59322190       5.63261462
W       11.26590250      -0.00000000       7.88565765
W       13.51908301       1.59322190       7.88565765
W        9.01272200      -0.00000000      10.13875225
W       11.26590250       1.59322190      10.13875225
W       11.26590250       0.00000000      12.39188965
W       13.51908301       1.59322190      12.39188965
W       13.51908301      -0.00000000      14.64501694
W       11.26590250       1.59322190      14.64501694
W       11.26590250      -0.00000000      16.89815510
W        9.01272200       1.59322190      16.89815510
W        9.01272200      -0.00000000      20.27948143
W       11.26590250       1.59322190      20.27948143
W       11.26590250       0.00000000      22.53261959
W        9.01272200       1.59322190      22.53261959
W        9.01272200       0.00000000      24.78574688
W       11.26590250       1.59322190      24.78574688
W       11.26590250       0.00000000      27.03888427
W        9.01272200       1.59322190      27.03888427
W       13.51908301       0.00000000      29.29197888
W       11.26590250       1.59322190      29.29197888
W       11.26590250      -0.00000000      31.54502190
W        9.01272200       1.59322190      31.54502190
W        9.01272200      -0.00000000      33.79801819
W       11.26590250       1.59322190      33.79801819
W       11.26590250      -0.00000000      36.05108063
W        9.01272200       1.59322190      36.05108063
W        9.01272200       3.18644380       1.12655590
W       11.26590250       4.77966570       1.12655590
W       11.26590250       3.18644380       3.37961833
W       13.51908301       4.77966570       3.37961833
W        9.01272200       3.18644380       5.63261462
W       11.26590250       4.77966570       5.63261462
W       11.26590250       3.18644380       7.88565765
W       13.51908301       4.77966570       7.88565765
W        9.01272200       3.18644380      10.13875225
W       11.26590250       4.77966570      10.13875225
W       11.26590250       3.18644380      12.39188965
W       13.51908301       4.77966570      12.39188965
W       13.51908301       3.18644380      14.64501694
W       11.26590250       4.77966570      14.64501694
W       11.26590250       3.18644380      16.89815510
W        9.01272200       4.77966570      16.89815510
W        9.01272200       3.18644380      20.27948143
W       11.26590250       4.77966570      20.27948143
W       11.26590250       3.18644380      22.53261959
W        9.01272200       4.77966570      22.53261959
W        9.01272200       3.18644380      24.78574688
W       11.26590250       4.77966570      24.78574688
W       11.26590250       3.18644380      27.03888427
W        9.01272200       4.77966570      27.03888427
W       13.51908301       3.18644380      29.29197888
W       11.26590250       4.77966570      29.29197888
W       11.26590250       3.18644380      31.54502190
W        9.01272200       4.77966570      31.54502190
W        9.01272200       3.18644380      33.79801819
W       11.26590250       4.77966570      33.79801819
W       11.26590250       3.18644380      36.05108063
W        9.01272200       4.77966570      36.05108063
W        9.01272200       6.37288760       1.12655590
W       11.26590250       7.96610950       1.12655590
W       11.26590250       6.37288760       3.37961833
W       13.51908301       7.96610950       3.37961833
W        9.01272200       6.37288760       5.63261462
W       11.26590250       7.96610950       5.63261462
W       11.26590250       6.37288760       7.88565765
W       13.51908301       7.96610950       7.88565765
W        9.01272200       6.37288760      10.13875225
W       11.26590250       7.96610950      10.13875225
W       11.26590250       6.37288760      12.39188965
W       13.51908301       7.96610950      12.39188965
W       13.51908301       6.37288760      14.64501694
W       11.26590250       7.96610950      14.64501694
W       11.26590250       6.37288760      16.89815510
W        9.01272200       7.96610950      16.89815510
W        9.01272200       6.37288760      20.27948143
W       11.26590250       7.96610950      20.27948143
W       11.26590250       6.37288760      22.53261959
W        9.01272200       7.96610950      22.53261959
W        9.01272200       6.37288760      24.78574688
W       11.26590250       7.96610950      24.78574688
W       11.26590250       6.37288760      27.03888427
W        9.01272200       7.96610950      27.03888427
W       13.51908301       6.37288760      29.29197888
W       11.26590250       7.96610950      29.29197888
W       11.26590250       6.37288760      31.54502190
W        9.01272200       7.96610950      31.54502190
W        9.01272200       6.37288760      33.79801819
W       11.26590250       7.96610950      33.79801819
W       11.26590250       6.37288760      36.05108063
W        9.01272200       7.96610950      36.05108063
288
Lattice="13.519083005276505 3.9762680028551066e-17 -4.0430281816947754e-17 2.832107032207403e-17 9.559331404516637 -2.7421228983415876e-17 -9.765279892702126e-17 -9.449974793418939e-17 37.28020062929899" Properties=species:S:1:pos:R:3 vacuum_gap_Ang=1.2307692307692308 frame_index=12 pbc="T T T"
W       -0.00000000       0.00000000       1.12655590
W        2.25318050       1.59322190       1.12655590
W        2.25318050       0.00000000       3.37961833
W        4.50636100       1.59322190       3.37961833
W       -0.00000000       0.00000000       5.63261462
W        2.25318050       1.59322190       5.63261462
W        2.25318050      -0.00000000       7.88565765
W        4.50636100       1.59322190       7.88565765
W       -0.00000000       0.00000000      10.13875225
W        2.25318050       1.59322190      10.13875225
W        2.25318050      -0.00000000      12.39188965
W        4.50636100       1.59322190      12.39188965
W        4.50636100      -0.00000000      14.64501694
W        2.25318050       1.59322190      14.64501694
W        2.25318050       0.00000000      16.89815510
W       -0.00000000       1.59322190      16.89815510
W       -0.00000000       0.00000000      20.38204553
W        2.25318050       1.59322190      20.38204553
W        2.25318050      -0.00000000      22.63518369
W       -0.00000000       1.59322190      22.63518369
W       -0.00000000      -0.00000000      24.88831098
W        2.25318050       1.59322190      24.88831098
W        2.25318050       0.00000000      27.14144838
W       -0.00000000       1.59322190      27.14144838
W        4.50636100      -0.00000000      29.39454298
W        2.25318050       1.59322190      29.39454298
W        2.25318050      -0.00000000      31.64758601
W       -0.00000000       1.59322190      31.64758601
W       -0.00000000      -0.00000000      33.90058230
W        2.25318050       1.59322190      33.90058230
W        2.25318050       0.00000000      36.15364473
W       -0.00000000       1.59322190      36.15364473
W       -0.00000000       3.18644380       1.12655590
W        2.25318050       4.77966570       1.12655590
W        2.25318050       3.18644380       3.37961833
W        4.50636100       4.77966570       3.37961833
W       -0.00000000       3.18644380       5.63261462
W        2.25318050       4.77966570       5.63261462
W        2.25318050       3.18644380       7.88565765
W        4.50636100       4.77966570       7.88565765
W       -0.00000000       3.18644380      10.13875225
W        2.25318050       4.77966570      10.13875225
W        2.25318050       3.18644380      12.39188965
W        4.50636100       4.77966570      12.39188965
W        4.50636100       3.18644380      14.64501694
W        2.25318050       4.77966570      14.64501694
W        2.25318050       3.18644380      16.89815510
W       -0.00000000       4.77966570      16.89815510
W       -0.00000000       3.18644380      20.38204553
W        2.25318050       4.77966570      20.38204553
W        2.25318050       3.18644380      22.63518369
W       -0.00000000       4.77966570      22.63518369
W       -0.00000000       3.18644380      24.88831098
W        2.25318050       4.77966570      24.88831098
W        2.25318050       3.18644380      27.14144838
W       -0.00000000       4.77966570      27.14144838
W        4.50636100       3.18644380      29.39454298
W        2.25318050       4.77966570      29.39454298
W        2.25318050       3.18644380      31.64758601
W       -0.00000000       4.77966570      31.64758601
W       -0.00000000       3.18644380      33.90058230
W        2.25318050       4.77966570      33.90058230
W        2.25318050       3.18644380      36.15364473
W       -0.00000000       4.77966570      36.15364473
W       -0.00000000       6.37288760       1.12655590
W        2.25318050       7.96610950       1.12655590
W        2.25318050       6.37288760       3.37961833
W        4.50636100       7.96610950       3.37961833
W       -0.00000000       6.37288760       5.63261462
W        2.25318050       7.96610950       5.63261462
W        2.25318050       6.37288760       7.88565765
W        4.50636100       7.96610950       7.88565765
W        0.00000000       6.37288760      10.13875225
W        2.25318050       7.96610950      10.13875225
W        2.25318050       6.37288760      12.39188965
W        4.50636100       7.96610950      12.39188965
W        4.50636100       6.37288760      14.64501694
W        2.25318050       7.96610950      14.64501694
W        2.25318050       6.37288760      16.89815510
W       -0.00000000       7.96610950      16.89815510
W       -0.00000000       6.37288760      20.38204553
W        2.25318050       7.96610950      20.38204553
W        2.25318050       6.37288760      22.63518369
W       -0.00000000       7.96610950      22.63518369
W       -0.00000000       6.37288760      24.88831098
W        2.25318050       7.96610950      24.88831098
W        2.25318050       6.37288760      27.14144838
W       -0.00000000       7.96610950      27.14144838
W        4.50636100       6.37288760      29.39454298
W        2.25318050       7.96610950      29.39454298
W        2.25318050       6.37288760      31.64758601
W       -0.00000000       7.96610950      31.64758601
W       -0.00000000       6.37288760      33.90058230
W        2.25318050       7.96610950      33.90058230
W        2.25318050       6.37288760      36.15364473
W       -0.00000000       7.96610950      36.15364473
W        4.50636100      -0.00000000       1.12655590
W        6.75954150       1.59322190       1.12655590
W        6.75954150       0.00000000       3.37961833
W        9.01272200       1.59322190       3.37961833
W        4.50636100       0.00000000       5.63261462
W        6.75954150       1.59322190       5.63261462
W        6.75954150      -0.00000000       7.88565765
W        9.01272200       1.59322190       7.88565765
W        4.50636100      -0.00000000      10.13875225
W        6.75954150       1.59322190      10.13875225
W        6.75954150       0.00000000      12.39188965
W        9.01272200       1.59322190      12.39188965
W        9.01272200      -0.00000000      14.64501694
W        6.75954150       1.59322190      14.64501694
W        6.75954150       0.00000000      16.89815510
W        4.50636100       1.59322190      16.89815510
W        4.50636100      -0.00000000      20.38204553
W        6.75954150       1.59322190      20.38204553
W        6.75954150      -0.00000000      22.63518369
W        4.50636100       1.59322190      22.63518369
W        4.50636100       0.00000000      24.88831098
W        6.75954150       1.59322190      24.88831098
W        6.75954150       0.00000000      27.14144838
W        4.50636100       1.59322190      27.14144838
W        9.01272200      -0.00000000      29.39454298
W        6.75954150       1.59322190      29.39454298
W        6.75954150      -0.00000000      31.64758601
W        4.50636100       1.59322190      31.64758601
W        4.50636100       0.00000000      33.90058230
W        6.75954150       1.59322190      33.90058230
W        6.75954150      -0.00000000      36.15364473
W        4.50636100       1.59322190      36.15364473
W        4.50636100       3.18644380       1.12655590
W        6.75954150       4.77966570       1.12655590
W        6.75954150       3.18644380       3.37961833
W        9.01272200       4.77966570       3.37961833
W        4.50636100       3.18644380       5.63261462
W        6.75954150       4.77966570       5.63261462
W        6.75954150       3.18644380       7.88565765
W        9.01272200       4.77966570       7.88565765
W        4.50636100       3.18644380      10.13875225
W        6.75954150       4.77966570      10.13875225
W        6.75954150       3.18644380      12.39188965
W        9.01272200       4.77966570      12.39188965
W        9.01272200       3.18644380      14.64501694
W        6.75954150       4.77966570      14.64501694
W        6.75954150       3.18644380      16.89815510
W        4.50636100       4.77966570      16.89815510
W        4.50636100       3.18644380      20.38204553
W        6.75954150       4.77966570      20.38204553
W        6.75954150       3.18644380      22.63518369
W        4.50636100       4.77966570      22.63518369
W        4.50636100       3.18644380      24.88831098
W        6.75954150       4.77966570      24.88831098
W        6.75954150       3.18644380      27.14144838
W        4.50636100       4.77966570      27.14144838
W        9.01272200       3.18644380      29.39454298
W        6.75954150       4.77966570      29.39454298
W        6.75954150       3.18644380      31.64758601
W        4.50636100       4.77966570      31.64758601
W        4.50636100       3.18644380      33.90058230
W        6.75954150       4.77966570      33.90058230
W        6.75954150       3.18644380      36.15364473
W        4.50636100       4.77966570      36.15364473
W        4.50636100       6.37288760       1.12655590
W        6.75954150       7.96610950       1.12655590
W        6.75954150       6.37288760       3.37961833
W        9.01272200       7.96610950       3.37961833
W        4.50636100       6.37288760       5.63261462
W        6.75954150       7.96610950       5.63261462
W        6.75954150       6.37288760       7.88565765
W        9.01272200       7.96610950       7.88565765
W        4.50636100       6.37288760      10.13875225
W        6.75954150       7.96610950      10.13875225
W        6.75954150       6.37288760      12.39188965
W        9.01272200       7.96610950      12.39188965
W        9.01272200       6.37288760      14.64501694
W        6.75954150       7.96610950      14.64501694
W        6.75954150       6.37288760      16.89815510
W        4.50636100       7.96610950      16.89815510
W        4.50636100       6.37288760      20.38204553
W        6.75954150       7.96610950      20.38204553
W        6.75954150       6.37288760      22.63518369
W        4.50636100       7.96610950      22.63518369
W        4.50636100       6.37288760      24.88831098
W        6.75954150       7.96610950      24.88831098
W        6.75954150       6.37288760      27.14144838
W        4.50636100       7.96610950      27.14144838
W        9.01272200       6.37288760      29.39454298
W        6.75954150       7.96610950      29.39454298
W        6.75954150       6.37288760      31.64758601
W        4.50636100       7.96610950      31.64758601
W        4.50636100       6.37288760      33.90058230
W        6.75954150       7.96610950      33.90058230
W        6.75954150       6.37288760      36.15364473
W        4.50636100       7.96610950      36.15364473
W        9.01272200      -0.00000000       1.12655590
W       11.26590250       1.59322190       1.12655590
W       11.26590250       0.00000000       3.37961833
W       13.51908301       1.59322190       3.37961833
W        9.01272200      -0.00000000       5.63261462
W       11.26590250       1.59322190       5.63261462
W       11.26590250      -0.00000000       7.88565765
W       13.51908301       1.59322190       7.88565765
W        9.01272200      -0.00000000      10.13875225
W       11.26590250       1.59322190      10.13875225
W       11.26590250       0.00000000      12.39188965
W       13.51908301       1.59322190      12.39188965
W       13.51908301      -0.00000000      14.64501694
W       11.26590250       1.59322190      14.64501694
W       11.26590250      -0.00000000      16.89815510
W        9.01272200       1.59322190      16.89815510
W        9.01272200      -0.00000000      20.38204553
W       11.26590250       1.59322190      20.38204553
W       11.26590250       0.00000000      22.63518369
W        9.01272200       1.59322190      22.63518369
W        9.01272200       0.00000000      24.88831098
W       11.26590250       1.59322190      24.88831098
W       11.26590250       0.00000000      27.14144838
W        9.01272200       1.59322190      27.14144838
W       13.51908301       0.00000000      29.39454298
W       11.26590250       1.59322190      29.39454298
W       11.26590250      -0.00000000      31.64758601
W        9.01272200       1.59322190      31.64758601
W        9.01272200      -0.00000000      33.90058230
W       11.26590250       1.59322190      33.90058230
W       11.26590250      -0.00000000      36.15364473
W        9.01272200       1.59322190      36.15364473
W        9.01272200       3.18644380       1.12655590
W       11.26590250       4.77966570       1.12655590
W       11.26590250       3.18644380       3.37961833
W       13.51908301       4.77966570       3.37961833
W        9.01272200       3.18644380       5.63261462
W       11.26590250       4.77966570       5.63261462
W       11.26590250       3.18644380       7.88565765
W       13.51908301       4.77966570       7.88565765
W        9.01272200       3.18644380      10.13875225
W       11.26590250       4.77966570      10.13875225
W       11.26590250       3.18644380      12.39188965
W       13.51908301       4.77966570      12.39188965
W       13.51908301       3.18644380      14.64501694
W       11.26590250       4.77966570      14.64501694
W       11.26590250       3.18644380      16.89815510
W        9.01272200       4.77966570      16.89815510
W        9.01272200       3.18644380      20.38204553
W       11.26590250       4.77966570      20.38204553
W       11.26590250       3.18644380      22.63518369
W        9.01272200       4.77966570      22.63518369
W        9.01272200       3.18644380      24.88831098
W       11.26590250       4.77966570      24.88831098
W       11.26590250       3.18644380      27.14144838
W        9.01272200       4.77966570      27.14144838
W       13.51908301       3.18644380      29.39454298
W       11.26590250       4.77966570      29.39454298
W       11.26590250       3.18644380      31.64758601
W        9.01272200       4.77966570      31.64758601
W        9.01272200       3.18644380      33.90058230
W       11.26590250       4.77966570      33.90058230
W       11.26590250       3.18644380      36.15364473
W        9.01272200       4.77966570      36.15364473
W        9.01272200       6.37288760       1.12655590
W       11.26590250       7.96610950       1.12655590
W       11.26590250       6.37288760       3.37961833
W       13.51908301       7.96610950       3.37961833
W        9.01272200       6.37288760       5.63261462
W       11.26590250       7.96610950       5.63261462
W       11.26590250       6.37288760       7.88565765
W       13.51908301       7.96610950       7.88565765
W        9.01272200       6.37288760      10.13875225
W       11.26590250       7.96610950      10.13875225
W       11.26590250       6.37288760      12.39188965
W       13.51908301       7.96610950      12.39188965
W       13.51908301       6.37288760      14.64501694
W       11.26590250       7.96610950      14.64501694
W       11.26590250       6.37288760      16.89815510
W        9.01272200       7.96610950      16.89815510
W        9.01272200       6.37288760      20.38204553
W       11.26590250       7.96610950      20.38204553
W       11.26590250       6.37288760      22.63518369
W        9.01272200       7.96610950      22.63518369
W        9.01272200       6.37288760      24.88831098
W       11.26590250       7.96610950      24.88831098
W       11.26590250       6.37288760      27.14144838
W        9.01272200       7.96610950      27.14144838
W       13.51908301       6.37288760      29.39454298
W       11.26590250       7.96610950      29.39454298
W       11.26590250       6.37288760      31.64758601
W        9.01272200       7.96610950      31.64758601
W        9.01272200       6.37288760      33.90058230
W       11.26590250       7.96610950      33.90058230
W       11.26590250       6.37288760      36.15364473
W        9.01272200       7.96610950      36.15364473
288
Lattice="13.519083005276505 3.9762680028551066e-17 -4.0430281816947754e-17 2.832107032207403e-17 9.559331404516637 -2.7421228983415876e-17 -9.765279892702126e-17 -9.449974793418939e-17 37.38276473186309" Properties=species:S:1:pos:R:3 vacuum_gap_Ang=1.3333333333333333 frame_index=13 pbc="T T T"
W       -0.00000000       0.00000000       1.12655590
W        2.25318050       1.59322190       1.12655590
W        2.25318050       0.00000000       3.37961833
W        4.50636100       1.59322190       3.37961833
W       -0.00000000       0.00000000       5.63261462
W        2.25318050       1.59322190       5.63261462
W        2.25318050      -0.00000000       7.88565765
W        4.50636100       1.59322190       7.88565765
W       -0.00000000       0.00000000      10.13875225
W        2.25318050       1.59322190      10.13875225
W        2.25318050      -0.00000000      12.39188965
W        4.50636100       1.59322190      12.39188965
W        4.50636100      -0.00000000      14.64501694
W        2.25318050       1.59322190      14.64501694
W        2.25318050       0.00000000      16.89815510
W       -0.00000000       1.59322190      16.89815510
W       -0.00000000       0.00000000      20.48460964
W        2.25318050       1.59322190      20.48460964
W        2.25318050      -0.00000000      22.73774779
W       -0.00000000       1.59322190      22.73774779
W       -0.00000000      -0.00000000      24.99087508
W        2.25318050       1.59322190      24.99087508
W        2.25318050       0.00000000      27.24401248
W       -0.00000000       1.59322190      27.24401248
W        4.50636100      -0.00000000      29.49710708
W        2.25318050       1.59322190      29.49710708
W        2.25318050      -0.00000000      31.75015011
W       -0.00000000       1.59322190      31.75015011
W       -0.00000000      -0.00000000      34.00314640
W        2.25318050       1.59322190      34.00314640
W        2.25318050       0.00000000      36.25620883
W       -0.00000000       1.59322190      36.25620883
W       -0.00000000       3.18644380       1.12655590
W        2.25318050       4.77966570       1.12655590
W        2.25318050       3.18644380       3.37961833
W        4.50636100       4.77966570       3.37961833
W       -0.00000000       3.18644380       5.63261462
W        2.25318050       4.77966570       5.63261462
W        2.25318050       3.18644380       7.88565765
W        4.50636100       4.77966570       7.88565765
W       -0.00000000       3.18644380      10.13875225
W        2.25318050       4.77966570      10.13875225
W        2.25318050       3.18644380      12.39188965
W        4.50636100       4.77966570      12.39188965
W        4.50636100       3.18644380      14.64501694
W        2.25318050       4.77966570      14.64501694
W        2.25318050       3.18644380      16.89815510
W       -0.00000000       4.77966570      16.89815510
W       -0.00000000       3.18644380      20.48460964
W        2.25318050       4.77966570      20.48460964
W        2.25318050       3.18644380      22.73774779
W       -0.00000000       4.77966570      22.73774779
W       -0.00000000       3.18644380      24.99087508
W        2.25318050       4.77966570      24.99087508
W        2.25318050       3.18644380      27.24401248
W       -0.00000000       4.77966570      27.24401248
W        4.50636100       3.18644380      29.49710708
W        2.25318050       4.77966570      29.49710708
W        2.25318050       3.18644380      31.75015011
W       -0.00000000       4.77966570      31.75015011
W       -0.00000000       3.18644380      34.00314640
W        2.25318050       4.77966570      34.00314640
W        2.25318050       3.18644380      36.25620883
W       -0.00000000       4.77966570      36.25620883
W       -0.00000000       6.37288760       1.12655590
W        2.25318050       7.96610950       1.12655590
W        2.25318050       6.37288760       3.37961833
W        4.50636100       7.96610950       3.37961833
W       -0.00000000       6.37288760       5.63261462
W        2.25318050       7.96610950       5.63261462
W        2.25318050       6.37288760       7.88565765
W        4.50636100       7.96610950       7.88565765
W        0.00000000       6.37288760      10.13875225
W        2.25318050       7.96610950      10.13875225
W        2.25318050       6.37288760      12.39188965
W        4.50636100       7.96610950      12.39188965
W        4.50636100       6.37288760      14.64501694
W        2.25318050       7.96610950      14.64501694
W        2.25318050       6.37288760      16.89815510
W       -0.00000000       7.96610950      16.89815510
W       -0.00000000       6.37288760      20.48460964
W        2.25318050       7.96610950      20.48460964
W        2.25318050       6.37288760      22.73774779
W       -0.00000000       7.96610950      22.73774779
W       -0.00000000       6.37288760      24.99087508
W        2.25318050       7.96610950      24.99087508
W        2.25318050       6.37288760      27.24401248
W       -0.00000000       7.96610950      27.24401248
W        4.50636100       6.37288760      29.49710708
W        2.25318050       7.96610950      29.49710708
W        2.25318050       6.37288760      31.75015011
W       -0.00000000       7.96610950      31.75015011
W       -0.00000000       6.37288760      34.00314640
W        2.25318050       7.96610950      34.00314640
W        2.25318050       6.37288760      36.25620883
W       -0.00000000       7.96610950      36.25620883
W        4.50636100      -0.00000000       1.12655590
W        6.75954150       1.59322190       1.12655590
W        6.75954150       0.00000000       3.37961833
W        9.01272200       1.59322190       3.37961833
W        4.50636100       0.00000000       5.63261462
W        6.75954150       1.59322190       5.63261462
W        6.75954150      -0.00000000       7.88565765
W        9.01272200       1.59322190       7.88565765
W        4.50636100      -0.00000000      10.13875225
W        6.75954150       1.59322190      10.13875225
W        6.75954150       0.00000000      12.39188965
W        9.01272200       1.59322190      12.39188965
W        9.01272200      -0.00000000      14.64501694
W        6.75954150       1.59322190      14.64501694
W        6.75954150       0.00000000      16.89815510
W        4.50636100       1.59322190      16.89815510
W        4.50636100      -0.00000000      20.48460964
W        6.75954150       1.59322190      20.48460964
W        6.75954150      -0.00000000      22.73774779
W        4.50636100       1.59322190      22.73774779
W        4.50636100       0.00000000      24.99087508
W        6.75954150       1.59322190      24.99087508
W        6.75954150       0.00000000      27.24401248
W        4.50636100       1.59322190      27.24401248
W        9.01272200      -0.00000000      29.49710708
W        6.75954150       1.59322190      29.49710708
W        6.75954150      -0.00000000      31.75015011
W        4.50636100       1.59322190      31.75015011
W        4.50636100       0.00000000      34.00314640
W        6.75954150       1.59322190      34.00314640
W        6.75954150      -0.00000000      36.25620883
W        4.50636100       1.59322190      36.25620883
W        4.50636100       3.18644380       1.12655590
W        6.75954150       4.77966570       1.12655590
W        6.75954150       3.18644380       3.37961833
W        9.01272200       4.77966570       3.37961833
W        4.50636100       3.18644380       5.63261462
W        6.75954150       4.77966570       5.63261462
W        6.75954150       3.18644380       7.88565765
W        9.01272200       4.77966570       7.88565765
W        4.50636100       3.18644380      10.13875225
W        6.75954150       4.77966570      10.13875225
W        6.75954150       3.18644380      12.39188965
W        9.01272200       4.77966570      12.39188965
W        9.01272200       3.18644380      14.64501694
W        6.75954150       4.77966570      14.64501694
W        6.75954150       3.18644380      16.89815510
W        4.50636100       4.77966570      16.89815510
W        4.50636100       3.18644380      20.48460964
W        6.75954150       4.77966570      20.48460964
W        6.75954150       3.18644380      22.73774779
W        4.50636100       4.77966570      22.73774779
W        4.50636100       3.18644380      24.99087508
W        6.75954150       4.77966570      24.99087508
W        6.75954150       3.18644380      27.24401248
W        4.50636100       4.77966570      27.24401248
W        9.01272200       3.18644380      29.49710708
W        6.75954150       4.77966570      29.49710708
W        6.75954150       3.18644380      31.75015011
W        4.50636100       4.77966570      31.75015011
W        4.50636100       3.18644380      34.00314640
W        6.75954150       4.77966570      34.00314640
W        6.75954150       3.18644380      36.25620883
W        4.50636100       4.77966570      36.25620883
W        4.50636100       6.37288760       1.12655590
W        6.75954150       7.96610950       1.12655590
W        6.75954150       6.37288760       3.37961833
W        9.01272200       7.96610950       3.37961833
W        4.50636100       6.37288760       5.63261462
W        6.75954150       7.96610950       5.63261462
W        6.75954150       6.37288760       7.88565765
W        9.01272200       7.96610950       7.88565765
W        4.50636100       6.37288760      10.13875225
W        6.75954150       7.96610950      10.13875225
W        6.75954150       6.37288760      12.39188965
W        9.01272200       7.96610950      12.39188965
W        9.01272200       6.37288760      14.64501694
W        6.75954150       7.96610950      14.64501694
W        6.75954150       6.37288760      16.89815510
W        4.50636100       7.96610950      16.89815510
W        4.50636100       6.37288760      20.48460964
W        6.75954150       7.96610950      20.48460964
W        6.75954150       6.37288760      22.73774779
W        4.50636100       7.96610950      22.73774779
W        4.50636100       6.37288760      24.99087508
W        6.75954150       7.96610950      24.99087508
W        6.75954150       6.37288760      27.24401248
W        4.50636100       7.96610950      27.24401248
W        9.01272200       6.37288760      29.49710708
W        6.75954150       7.96610950      29.49710708
W        6.75954150       6.37288760      31.75015011
W        4.50636100       7.96610950      31.75015011
W        4.50636100       6.37288760      34.00314640
W        6.75954150       7.96610950      34.00314640
W        6.75954150       6.37288760      36.25620883
W        4.50636100       7.96610950      36.25620883
W        9.01272200      -0.00000000       1.12655590
W       11.26590250       1.59322190       1.12655590
W       11.26590250       0.00000000       3.37961833
W       13.51908301       1.59322190       3.37961833
W        9.01272200      -0.00000000       5.63261462
W       11.26590250       1.59322190       5.63261462
W       11.26590250      -0.00000000       7.88565765
W       13.51908301       1.59322190       7.88565765
W        9.01272200      -0.00000000      10.13875225
W       11.26590250       1.59322190      10.13875225
W       11.26590250       0.00000000      12.39188965
W       13.51908301       1.59322190      12.39188965
W       13.51908301      -0.00000000      14.64501694
W       11.26590250       1.59322190      14.64501694
W       11.26590250      -0.00000000      16.89815510
W        9.01272200       1.59322190      16.89815510
W        9.01272200      -0.00000000      20.48460964
W       11.26590250       1.59322190      20.48460964
W       11.26590250       0.00000000      22.73774779
W        9.01272200       1.59322190      22.73774779
W        9.01272200       0.00000000      24.99087508
W       11.26590250       1.59322190      24.99087508
W       11.26590250       0.00000000      27.24401248
W        9.01272200       1.59322190      27.24401248
W       13.51908301       0.00000000      29.49710708
W       11.26590250       1.59322190      29.49710708
W       11.26590250      -0.00000000      31.75015011
W        9.01272200       1.59322190      31.75015011
W        9.01272200      -0.00000000      34.00314640
W       11.26590250       1.59322190      34.00314640
W       11.26590250      -0.00000000      36.25620883
W        9.01272200       1.59322190      36.25620883
W        9.01272200       3.18644380       1.12655590
W       11.26590250       4.77966570       1.12655590
W       11.26590250       3.18644380       3.37961833
W       13.51908301       4.77966570       3.37961833
W        9.01272200       3.18644380       5.63261462
W       11.26590250       4.77966570       5.63261462
W       11.26590250       3.18644380       7.88565765
W       13.51908301       4.77966570       7.88565765
W        9.01272200       3.18644380      10.13875225
W       11.26590250       4.77966570      10.13875225
W       11.26590250       3.18644380      12.39188965
W       13.51908301       4.77966570      12.39188965
W       13.51908301       3.18644380      14.64501694
W       11.26590250       4.77966570      14.64501694
W       11.26590250       3.18644380      16.89815510
W        9.01272200       4.77966570      16.89815510
W        9.01272200       3.18644380      20.48460964
W       11.26590250       4.77966570      20.48460964
W       11.26590250       3.18644380      22.73774779
W        9.01272200       4.77966570      22.73774779
W        9.01272200       3.18644380      24.99087508
W       11.26590250       4.77966570      24.99087508
W       11.26590250       3.18644380      27.24401248
W        9.01272200       4.77966570      27.24401248
W       13.51908301       3.18644380      29.49710708
W       11.26590250       4.77966570      29.49710708
W       11.26590250       3.18644380      31.75015011
W        9.01272200       4.77966570      31.75015011
W        9.01272200       3.18644380      34.00314640
W       11.26590250       4.77966570      34.00314640
W       11.26590250       3.18644380      36.25620883
W        9.01272200       4.77966570      36.25620883
W        9.01272200       6.37288760       1.12655590
W       11.26590250       7.96610950       1.12655590
W       11.26590250       6.37288760       3.37961833
W       13.51908301       7.96610950       3.37961833
W        9.01272200       6.37288760       5.63261462
W       11.26590250       7.96610950       5.63261462
W       11.26590250       6.37288760       7.88565765
W       13.51908301       7.96610950       7.88565765
W        9.01272200       6.37288760      10.13875225
W       11.26590250       7.96610950      10.13875225
W       11.26590250       6.37288760      12.39188965
W       13.51908301       7.96610950      12.39188965
W       13.51908301       6.37288760      14.64501694
W       11.26590250       7.96610950      14.64501694
W       11.26590250       6.37288760      16.89815510
W        9.01272200       7.96610950      16.89815510
W        9.01272200       6.37288760      20.48460964
W       11.26590250       7.96610950      20.48460964
W       11.26590250       6.37288760      22.73774779
W        9.01272200       7.96610950      22.73774779
W        9.01272200       6.37288760      24.99087508
W       11.26590250       7.96610950      24.99087508
W       11.26590250       6.37288760      27.24401248
W        9.01272200       7.96610950      27.24401248
W       13.51908301       6.37288760      29.49710708
W       11.26590250       7.96610950      29.49710708
W       11.26590250       6.37288760      31.75015011
W        9.01272200       7.96610950      31.75015011
W        9.01272200       6.37288760      34.00314640
W       11.26590250       7.96610950      34.00314640
W       11.26590250       6.37288760      36.25620883
W        9.01272200       7.96610950      36.25620883
288
Lattice="13.519083005276505 3.9762680028551066e-17 -4.0430281816947754e-17 2.832107032207403e-17 9.559331404516637 -2.7421228983415876e-17 -9.765279892702126e-17 -9.449974793418939e-17 37.48532883442719" Properties=species:S:1:pos:R:3 vacuum_gap_Ang=1.435897435897436 frame_index=14 pbc="T T T"
W       -0.00000000       0.00000000       1.12655590
W        2.25318050       1.59322190       1.12655590
W        2.25318050       0.00000000       3.37961833
W        4.50636100       1.59322190       3.37961833
W       -0.00000000       0.00000000       5.63261462
W        2.25318050       1.59322190       5.63261462
W        2.25318050      -0.00000000       7.88565765
W        4.50636100       1.59322190       7.88565765
W       -0.00000000       0.00000000      10.13875225
W        2.25318050       1.59322190      10.13875225
W        2.25318050      -0.00000000      12.39188965
W        4.50636100       1.59322190      12.39188965
W        4.50636100      -0.00000000      14.64501694
W        2.25318050       1.59322190      14.64501694
W        2.25318050       0.00000000      16.89815510
W       -0.00000000       1.59322190      16.89815510
W       -0.00000000       0.00000000      20.58717374
W        2.25318050       1.59322190      20.58717374
W        2.25318050      -0.00000000      22.84031189
W       -0.00000000       1.59322190      22.84031189
W       -0.00000000      -0.00000000      25.09343919
W        2.25318050       1.59322190      25.09343919
W        2.25318050       0.00000000      27.34657658
W       -0.00000000       1.59322190      27.34657658
W        4.50636100      -0.00000000      29.59967118
W        2.25318050       1.59322190      29.59967118
W        2.25318050      -0.00000000      31.85271421
W       -0.00000000       1.59322190      31.85271421
W       -0.00000000      -0.00000000      34.10571050
W        2.25318050       1.59322190      34.10571050
W        2.25318050       0.00000000      36.35877294
W       -0.00000000       1.59322190      36.35877294
W       -0.00000000       3.18644380       1.12655590
W        2.25318050       4.77966570       1.12655590
W        2.25318050       3.18644380       3.37961833
W        4.50636100       4.77966570       3.37961833
W       -0.00000000       3.18644380       5.63261462
W        2.25318050       4.77966570       5.63261462
W        2.25318050       3.18644380       7.88565765
W        4.50636100       4.77966570       7.88565765
W       -0.00000000       3.18644380      10.13875225
W        2.25318050       4.77966570      10.13875225
W        2.25318050       3.18644380      12.39188965
W        4.50636100       4.77966570      12.39188965
W        4.50636100       3.18644380      14.64501694
W        2.25318050       4.77966570      14.64501694
W        2.25318050       3.18644380      16.89815510
W       -0.00000000       4.77966570      16.89815510
W       -0.00000000       3.18644380      20.58717374
W        2.25318050       4.77966570      20.58717374
W        2.25318050       3.18644380      22.84031189
W       -0.00000000       4.77966570      22.84031189
W       -0.00000000       3.18644380      25.09343919
W        2.25318050       4.77966570      25.09343919
W        2.25318050       3.18644380      27.34657658
W       -0.00000000       4.77966570      27.34657658
W        4.50636100       3.18644380      29.59967118
W        2.25318050       4.77966570      29.59967118
W        2.25318050       3.18644380      31.85271421
W       -0.00000000       4.77966570      31.85271421
W       -0.00000000       3.18644380      34.10571050
W        2.25318050       4.77966570      34.10571050
W        2.25318050       3.18644380      36.35877294
W       -0.00000000       4.77966570      36.35877294
W       -0.00000000       6.37288760       1.12655590
W        2.25318050       7.96610950       1.12655590
W        2.25318050       6.37288760       3.37961833
W        4.50636100       7.96610950       3.37961833
W       -0.00000000       6.37288760       5.63261462
W        2.25318050       7.96610950       5.63261462
W        2.25318050       6.37288760       7.88565765
W        4.50636100       7.96610950       7.88565765
W        0.00000000       6.37288760      10.13875225
W        2.25318050       7.96610950      10.13875225
W        2.25318050       6.37288760      12.39188965
W        4.50636100       7.96610950      12.39188965
W        4.50636100       6.37288760      14.64501694
W        2.25318050       7.96610950      14.64501694
W        2.25318050       6.37288760      16.89815510
W       -0.00000000       7.96610950      16.89815510
W       -0.00000000       6.37288760      20.58717374
W        2.25318050       7.96610950      20.58717374
W        2.25318050       6.37288760      22.84031189
W       -0.00000000       7.96610950      22.84031189
W       -0.00000000       6.37288760      25.09343919
W        2.25318050       7.96610950      25.09343919
W        2.25318050       6.37288760      27.34657658
W       -0.00000000       7.96610950      27.34657658
W        4.50636100       6.37288760      29.59967118
W        2.25318050       7.96610950      29.59967118
W        2.25318050       6.37288760      31.85271421
W       -0.00000000       7.96610950      31.85271421
W       -0.00000000       6.37288760      34.10571050
W        2.25318050       7.96610950      34.10571050
W        2.25318050       6.37288760      36.35877294
W       -0.00000000       7.96610950      36.35877294
W        4.50636100      -0.00000000       1.12655590
W        6.75954150       1.59322190       1.12655590
W        6.75954150       0.00000000       3.37961833
W        9.01272200       1.59322190       3.37961833
W        4.50636100       0.00000000       5.63261462
W        6.75954150       1.59322190       5.63261462
W        6.75954150      -0.00000000       7.88565765
W        9.01272200       1.59322190       7.88565765
W        4.50636100      -0.00000000      10.13875225
W        6.75954150       1.59322190      10.13875225
W        6.75954150       0.00000000      12.39188965
W        9.01272200       1.59322190      12.39188965
W        9.01272200      -0.00000000      14.64501694
W        6.75954150       1.59322190      14.64501694
W        6.75954150       0.00000000      16.89815510
W        4.50636100       1.59322190      16.89815510
W        4.50636100      -0.00000000      20.58717374
W        6.75954150       1.59322190      20.58717374
W        6.75954150      -0.00000000      22.84031189
W        4.50636100       1.59322190      22.84031189
W        4.50636100       0.00000000      25.09343919
W        6.75954150       1.59322190      25.09343919
W        6.75954150       0.00000000      27.34657658
W        4.50636100       1.59322190      27.34657658
W        9.01272200      -0.00000000      29.59967118
W        6.75954150       1.59322190      29.59967118
W        6.75954150      -0.00000000      31.85271421
W        4.50636100       1.59322190      31.85271421
W        4.50636100       0.00000000      34.10571050
W        6.75954150       1.59322190      34.10571050
W        6.75954150      -0.00000000      36.35877294
W        4.50636100       1.59322190      36.35877294
W        4.50636100       3.18644380       1.12655590
W        6.75954150       4.77966570       1.12655590
W        6.75954150       3.18644380       3.37961833
W        9.01272200       4.77966570       3.37961833
W        4.50636100       3.18644380       5.63261462
W        6.75954150       4.77966570       5.63261462
W        6.75954150       3.18644380       7.88565765
W        9.01272200       4.77966570       7.88565765
W        4.50636100       3.18644380      10.13875225
W        6.75954150       4.77966570      10.13875225
W        6.75954150       3.18644380      12.39188965
W        9.01272200       4.77966570      12.39188965
W        9.01272200       3.18644380      14.64501694
W        6.75954150       4.77966570      14.64501694
W        6.75954150       3.18644380      16.89815510
W        4.50636100       4.77966570      16.89815510
W        4.50636100       3.18644380      20.58717374
W        6.75954150       4.77966570      20.58717374
W        6.75954150       3.18644380      22.84031189
W        4.50636100       4.77966570      22.84031189
W        4.50636100       3.18644380      25.09343919
W        6.75954150       4.77966570      25.09343919
W        6.75954150       3.18644380      27.34657658
W        4.50636100       4.77966570      27.34657658
W        9.01272200       3.18644380      29.59967118
W        6.75954150       4.77966570      29.59967118
W        6.75954150       3.18644380      31.85271421
W        4.50636100       4.77966570      31.85271421
W        4.50636100       3.18644380      34.10571050
W        6.75954150       4.77966570      34.10571050
W        6.75954150       3.18644380      36.35877294
W        4.50636100       4.77966570      36.35877294
W        4.50636100       6.37288760       1.12655590
W        6.75954150       7.96610950       1.12655590
W        6.75954150       6.37288760       3.37961833
W        9.01272200       7.96610950       3.37961833
W        4.50636100       6.37288760       5.63261462
W        6.75954150       7.96610950       5.63261462
W        6.75954150       6.37288760       7.88565765
W        9.01272200       7.96610950       7.88565765
W        4.50636100       6.37288760      10.13875225
W        6.75954150       7.96610950      10.13875225
W        6.75954150       6.37288760      12.39188965
W        9.01272200       7.96610950      12.39188965
W        9.01272200       6.37288760      14.64501694
W        6.75954150       7.96610950      14.64501694
W        6.75954150       6.37288760      16.89815510
W        4.50636100       7.96610950      16.89815510
W        4.50636100       6.37288760      20.58717374
W        6.75954150       7.96610950      20.58717374
W        6.75954150       6.37288760      22.84031189
W        4.50636100       7.96610950      22.84031189
W        4.50636100       6.37288760      25.09343919
W        6.75954150       7.96610950      25.09343919
W        6.75954150       6.37288760      27.34657658
W        4.50636100       7.96610950      27.34657658
W        9.01272200       6.37288760      29.59967118
W        6.75954150       7.96610950      29.59967118
W        6.75954150       6.37288760      31.85271421
W        4.50636100       7.96610950      31.85271421
W        4.50636100       6.37288760      34.10571050
W        6.75954150       7.96610950      34.10571050
W        6.75954150       6.37288760      36.35877294
W        4.50636100       7.96610950      36.35877294
W        9.01272200      -0.00000000       1.12655590
W       11.26590250       1.59322190       1.12655590
W       11.26590250       0.00000000       3.37961833
W       13.51908301       1.59322190       3.37961833
W        9.01272200      -0.00000000       5.63261462
W       11.26590250       1.59322190       5.63261462
W       11.26590250      -0.00000000       7.88565765
W       13.51908301       1.59322190       7.88565765
W        9.01272200      -0.00000000      10.13875225
W       11.26590250       1.59322190      10.13875225
W       11.26590250       0.00000000      12.39188965
W       13.51908301       1.59322190      12.39188965
W       13.51908301      -0.00000000      14.64501694
W       11.26590250       1.59322190      14.64501694
W       11.26590250      -0.00000000      16.89815510
W        9.01272200       1.59322190      16.89815510
W        9.01272200      -0.00000000      20.58717374
W       11.26590250       1.59322190      20.58717374
W       11.26590250       0.00000000      22.84031189
W        9.01272200       1.59322190      22.84031189
W        9.01272200       0.00000000      25.09343919
W       11.26590250       1.59322190      25.09343919
W       11.26590250       0.00000000      27.34657658
W        9.01272200       1.59322190      27.34657658
W       13.51908301       0.00000000      29.59967118
W       11.26590250       1.59322190      29.59967118
W       11.26590250      -0.00000000      31.85271421
W        9.01272200       1.59322190      31.85271421
W        9.01272200      -0.00000000      34.10571050
W       11.26590250       1.59322190      34.10571050
W       11.26590250      -0.00000000      36.35877294
W        9.01272200       1.59322190      36.35877294
W        9.01272200       3.18644380       1.12655590
W       11.26590250       4.77966570       1.12655590
W       11.26590250       3.18644380       3.37961833
W       13.51908301       4.77966570       3.37961833
W        9.01272200       3.18644380       5.63261462
W       11.26590250       4.77966570       5.63261462
W       11.26590250       3.18644380       7.88565765
W       13.51908301       4.77966570       7.88565765
W        9.01272200       3.18644380      10.13875225
W       11.26590250       4.77966570      10.13875225
W       11.26590250       3.18644380      12.39188965
W       13.51908301       4.77966570      12.39188965
W       13.51908301       3.18644380      14.64501694
W       11.26590250       4.77966570      14.64501694
W       11.26590250       3.18644380      16.89815510
W        9.01272200       4.77966570      16.89815510
W        9.01272200       3.18644380      20.58717374
W       11.26590250       4.77966570      20.58717374
W       11.26590250       3.18644380      22.84031189
W        9.01272200       4.77966570      22.84031189
W        9.01272200       3.18644380      25.09343919
W       11.26590250       4.77966570      25.09343919
W       11.26590250       3.18644380      27.34657658
W        9.01272200       4.77966570      27.34657658
W       13.51908301       3.18644380      29.59967118
W       11.26590250       4.77966570      29.59967118
W       11.26590250       3.18644380      31.85271421
W        9.01272200       4.77966570      31.85271421
W        9.01272200       3.18644380      34.10571050
W       11.26590250       4.77966570      34.10571050
W       11.26590250       3.18644380      36.35877294
W        9.01272200       4.77966570      36.35877294
W        9.01272200       6.37288760       1.12655590
W       11.26590250       7.96610950       1.12655590
W       11.26590250       6.37288760       3.37961833
W       13.51908301       7.96610950       3.37961833
W        9.01272200       6.37288760       5.63261462
W       11.26590250       7.96610950       5.63261462
W       11.26590250       6.37288760       7.88565765
W       13.51908301       7.96610950       7.88565765
W        9.01272200       6.37288760      10.13875225
W       11.26590250       7.96610950      10.13875225
W       11.26590250       6.37288760      12.39188965
W       13.51908301       7.96610950      12.39188965
W       13.51908301       6.37288760      14.64501694
W       11.26590250       7.96610950      14.64501694
W       11.26590250       6.37288760      16.89815510
W        9.01272200       7.96610950      16.89815510
W        9.01272200       6.37288760      20.58717374
W       11.26590250       7.96610950      20.58717374
W       11.26590250       6.37288760      22.84031189
W        9.01272200       7.96610950      22.84031189
W        9.01272200       6.37288760      25.09343919
W       11.26590250       7.96610950      25.09343919
W       11.26590250       6.37288760      27.34657658
W        9.01272200       7.96610950      27.34657658
W       13.51908301       6.37288760      29.59967118
W       11.26590250       7.96610950      29.59967118
W       11.26590250       6.37288760      31.85271421
W        9.01272200       7.96610950      31.85271421
W        9.01272200       6.37288760      34.10571050
W       11.26590250       7.96610950      34.10571050
W       11.26590250       6.37288760      36.35877294
W        9.01272200       7.96610950      36.35877294
288
Lattice="13.519083005276505 3.9762680028551066e-17 -4.0430281816947754e-17 2.832107032207403e-17 9.559331404516637 -2.7421228983415876e-17 -9.765279892702126e-17 -9.449974793418939e-17 37.587892936991295" Properties=species:S:1:pos:R:3 vacuum_gap_Ang=1.5384615384615383 frame_index=15 pbc="T T T"
W       -0.00000000       0.00000000       1.12655590
W        2.25318050       1.59322190       1.12655590
W        2.25318050       0.00000000       3.37961833
W        4.50636100       1.59322190       3.37961833
W       -0.00000000       0.00000000       5.63261462
W        2.25318050       1.59322190       5.63261462
W        2.25318050      -0.00000000       7.88565765
W        4.50636100       1.59322190       7.88565765
W       -0.00000000       0.00000000      10.13875225
W        2.25318050       1.59322190      10.13875225
W        2.25318050      -0.00000000      12.39188965
W        4.50636100       1.59322190      12.39188965
W        4.50636100      -0.00000000      14.64501694
W        2.25318050       1.59322190      14.64501694
W        2.25318050       0.00000000      16.89815510
W       -0.00000000       1.59322190      16.89815510
W       -0.00000000       0.00000000      20.68973784
W        2.25318050       1.59322190      20.68973784
W        2.25318050      -0.00000000      22.94287600
W       -0.00000000       1.59322190      22.94287600
W       -0.00000000      -0.00000000      25.19600329
W        2.25318050       1.59322190      25.19600329
W        2.25318050       0.00000000      27.44914068
W       -0.00000000       1.59322190      27.44914068
W        4.50636100      -0.00000000      29.70223529
W        2.25318050       1.59322190      29.70223529
W        2.25318050      -0.00000000      31.95527831
W       -0.00000000       1.59322190      31.95527831
W       -0.00000000      -0.00000000      34.20827460
W        2.25318050       1.59322190      34.20827460
W        2.25318050       0.00000000      36.46133704
W       -0.00000000       1.59322190      36.46133704
W       -0.00000000       3.18644380       1.12655590
W        2.25318050       4.77966570       1.12655590
W        2.25318050       3.18644380       3.37961833
W        4.50636100       4.77966570       3.37961833
W       -0.00000000       3.18644380       5.63261462
W        2.25318050       4.77966570       5.63261462
W        2.25318050       3.18644380       7.88565765
W        4.50636100       4.77966570       7.88565765
W       -0.00000000       3.18644380      10.13875225
W        2.25318050       4.77966570      10.13875225
W        2.25318050       3.18644380      12.39188965
W        4.50636100       4.77966570      12.39188965
W        4.50636100       3.18644380      14.64501694
W        2.25318050       4.77966570      14.64501694
W        2.25318050       3.18644380      16.89815510
W       -0.00000000       4.77966570      16.89815510
W       -0.00000000       3.18644380      20.68973784
W        2.25318050       4.77966570      20.68973784
W        2.25318050       3.18644380      22.94287600
W       -0.00000000       4.77966570      22.94287600
W       -0.00000000       3.18644380      25.19600329
W        2.25318050       4.77966570      25.19600329
W        2.25318050       3.18644380      27.44914068
W       -0.00000000       4.77966570      27.44914068
W        4.50636100       3.18644380      29.70223529
W        2.25318050       4.77966570      29.70223529
W        2.25318050       3.18644380      31.95527831
W       -0.00000000       4.77966570      31.95527831
W       -0.00000000       3.18644380      34.20827460
W        2.25318050       4.77966570      34.20827460
W        2.25318050       3.18644380      36.46133704
W       -0.00000000       4.77966570      36.46133704
W       -0.00000000       6.37288760       1.12655590
W        2.25318050       7.96610950       1.12655590
W        2.25318050       6.37288760       3.37961833
W        4.50636100       7.96610950       3.37961833
W       -0.00000000       6.37288760       5.63261462
W        2.25318050       7.96610950       5.63261462
W        2.25318050       6.37288760       7.88565765
W        4.50636100       7.96610950       7.88565765
W        0.00000000       6.37288760      10.13875225
W        2.25318050       7.96610950      10.13875225
W        2.25318050       6.37288760      12.39188965
W        4.50636100       7.96610950      12.39188965
W        4.50636100       6.37288760      14.64501694
W        2.25318050       7.96610950      14.64501694
W        2.25318050       6.37288760      16.89815510
W       -0.00000000       7.96610950      16.89815510
W       -0.00000000       6.37288760      20.68973784
W        2.25318050       7.96610950      20.68973784
W        2.25318050       6.37288760      22.94287600
W       -0.00000000       7.96610950      22.94287600
W       -0.00000000       6.37288760      25.19600329
W        2.25318050       7.96610950      25.19600329
W        2.25318050       6.37288760      27.44914068
W       -0.00000000       7.96610950      27.44914068
W        4.50636100       6.37288760      29.70223529
W        2.25318050       7.96610950      29.70223529
W        2.25318050       6.37288760      31.95527831
W       -0.00000000       7.96610950      31.95527831
W       -0.00000000       6.37288760      34.20827460
W        2.25318050       7.96610950      34.20827460
W        2.25318050       6.37288760      36.46133704
W       -0.00000000       7.96610950      36.46133704
W        4.50636100      -0.00000000       1.12655590
W        6.75954150       1.59322190       1.12655590
W        6.75954150       0.00000000       3.37961833
W        9.01272200       1.59322190       3.37961833
W        4.50636100       0.00000000       5.63261462
W        6.75954150       1.59322190       5.63261462
W        6.75954150      -0.00000000       7.88565765
W        9.01272200       1.59322190       7.88565765
W        4.50636100      -0.00000000      10.13875225
W        6.75954150       1.59322190      10.13875225
W        6.75954150       0.00000000      12.39188965
W        9.01272200       1.59322190      12.39188965
W        9.01272200      -0.00000000      14.64501694
W        6.75954150       1.59322190      14.64501694
W        6.75954150       0.00000000      16.89815510
W        4.50636100       1.59322190      16.89815510
W        4.50636100      -0.00000000      20.68973784
W        6.75954150       1.59322190      20.68973784
W        6.75954150      -0.00000000      22.94287600
W        4.50636100       1.59322190      22.94287600
W        4.50636100       0.00000000      25.19600329
W        6.75954150       1.59322190      25.19600329
W        6.75954150       0.00000000      27.44914068
W        4.50636100       1.59322190      27.44914068
W        9.01272200      -0.00000000      29.70223529
W        6.75954150       1.59322190      29.70223529
W        6.75954150      -0.00000000      31.95527831
W        4.50636100       1.59322190      31.95527831
W        4.50636100       0.00000000      34.20827460
W        6.75954150       1.59322190      34.20827460
W        6.75954150      -0.00000000      36.46133704
W        4.50636100       1.59322190      36.46133704
W        4.50636100       3.18644380       1.12655590
W        6.75954150       4.77966570       1.12655590
W        6.75954150       3.18644380       3.37961833
W        9.01272200       4.77966570       3.37961833
W        4.50636100       3.18644380       5.63261462
W        6.75954150       4.77966570       5.63261462
W        6.75954150       3.18644380       7.88565765
W        9.01272200       4.77966570       7.88565765
W        4.50636100       3.18644380      10.13875225
W        6.75954150       4.77966570      10.13875225
W        6.75954150       3.18644380      12.39188965
W        9.01272200       4.77966570      12.39188965
W        9.01272200       3.18644380      14.64501694
W        6.75954150       4.77966570      14.64501694
W        6.75954150       3.18644380      16.89815510
W        4.50636100       4.77966570      16.89815510
W        4.50636100       3.18644380      20.68973784
W        6.75954150       4.77966570      20.68973784
W        6.75954150       3.18644380      22.94287600
W        4.50636100       4.77966570      22.94287600
W        4.50636100       3.18644380      25.19600329
W        6.75954150       4.77966570      25.19600329
W        6.75954150       3.18644380      27.44914068
W        4.50636100       4.77966570      27.44914068
W        9.01272200       3.18644380      29.70223529
W        6.75954150       4.77966570      29.70223529
W        6.75954150       3.18644380      31.95527831
W        4.50636100       4.77966570      31.95527831
W        4.50636100       3.18644380      34.20827460
W        6.75954150       4.77966570      34.20827460
W        6.75954150       3.18644380      36.46133704
W        4.50636100       4.77966570      36.46133704
W        4.50636100       6.37288760       1.12655590
W        6.75954150       7.96610950       1.12655590
W        6.75954150       6.37288760       3.37961833
W        9.01272200       7.96610950       3.37961833
W        4.50636100       6.37288760       5.63261462
W        6.75954150       7.96610950       5.63261462
W        6.75954150       6.37288760       7.88565765
W        9.01272200       7.96610950       7.88565765
W        4.50636100       6.37288760      10.13875225
W        6.75954150       7.96610950      10.13875225
W        6.75954150       6.37288760      12.39188965
W        9.01272200       7.96610950      12.39188965
W        9.01272200       6.37288760      14.64501694
W        6.75954150       7.96610950      14.64501694
W        6.75954150       6.37288760      16.89815510
W        4.50636100       7.96610950      16.89815510
W        4.50636100       6.37288760      20.68973784
W        6.75954150       7.96610950      20.68973784
W        6.75954150       6.37288760      22.94287600
W        4.50636100       7.96610950      22.94287600
W        4.50636100       6.37288760      25.19600329
W        6.75954150       7.96610950      25.19600329
W        6.75954150       6.37288760      27.44914068
W        4.50636100       7.96610950      27.44914068
W        9.01272200       6.37288760      29.70223529
W        6.75954150       7.96610950      29.70223529
W        6.75954150       6.37288760      31.95527831
W        4.50636100       7.96610950      31.95527831
W        4.50636100       6.37288760      34.20827460
W        6.75954150       7.96610950      34.20827460
W        6.75954150       6.37288760      36.46133704
W        4.50636100       7.96610950      36.46133704
W        9.01272200      -0.00000000       1.12655590
W       11.26590250       1.59322190       1.12655590
W       11.26590250       0.00000000       3.37961833
W       13.51908301       1.59322190       3.37961833
W        9.01272200      -0.00000000       5.63261462
W       11.26590250       1.59322190       5.63261462
W       11.26590250      -0.00000000       7.88565765
W       13.51908301       1.59322190       7.88565765
W        9.01272200      -0.00000000      10.13875225
W       11.26590250       1.59322190      10.13875225
W       11.26590250       0.00000000      12.39188965
W       13.51908301       1.59322190      12.39188965
W       13.51908301      -0.00000000      14.64501694
W       11.26590250       1.59322190      14.64501694
W       11.26590250      -0.00000000      16.89815510
W        9.01272200       1.59322190      16.89815510
W        9.01272200      -0.00000000      20.68973784
W       11.26590250       1.59322190      20.68973784
W       11.26590250       0.00000000      22.94287600
W        9.01272200       1.59322190      22.94287600
W        9.01272200       0.00000000      25.19600329
W       11.26590250       1.59322190      25.19600329
W       11.26590250       0.00000000      27.44914068
W        9.01272200       1.59322190      27.44914068
W       13.51908301       0.00000000      29.70223529
W       11.26590250       1.59322190      29.70223529
W       11.26590250      -0.00000000      31.95527831
W        9.01272200       1.59322190      31.95527831
W        9.01272200      -0.00000000      34.20827460
W       11.26590250       1.59322190      34.20827460
W       11.26590250      -0.00000000      36.46133704
W        9.01272200       1.59322190      36.46133704
W        9.01272200       3.18644380       1.12655590
W       11.26590250       4.77966570       1.12655590
W       11.26590250       3.18644380       3.37961833
W       13.51908301       4.77966570       3.37961833
W        9.01272200       3.18644380       5.63261462
W       11.26590250       4.77966570       5.63261462
W       11.26590250       3.18644380       7.88565765
W       13.51908301       4.77966570       7.88565765
W        9.01272200       3.18644380      10.13875225
W       11.26590250       4.77966570      10.13875225
W       11.26590250       3.18644380      12.39188965
W       13.51908301       4.77966570      12.39188965
W       13.51908301       3.18644380      14.64501694
W       11.26590250       4.77966570      14.64501694
W       11.26590250       3.18644380      16.89815510
W        9.01272200       4.77966570      16.89815510
W        9.01272200       3.18644380      20.68973784
W       11.26590250       4.77966570      20.68973784
W       11.26590250       3.18644380      22.94287600
W        9.01272200       4.77966570      22.94287600
W        9.01272200       3.18644380      25.19600329
W       11.26590250       4.77966570      25.19600329
W       11.26590250       3.18644380      27.44914068
W        9.01272200       4.77966570      27.44914068
W       13.51908301       3.18644380      29.70223529
W       11.26590250       4.77966570      29.70223529
W       11.26590250       3.18644380      31.95527831
W        9.01272200       4.77966570      31.95527831
W        9.01272200       3.18644380      34.20827460
W       11.26590250       4.77966570      34.20827460
W       11.26590250       3.18644380      36.46133704
W        9.01272200       4.77966570      36.46133704
W        9.01272200       6.37288760       1.12655590
W       11.26590250       7.96610950       1.12655590
W       11.26590250       6.37288760       3.37961833
W       13.51908301       7.96610950       3.37961833
W        9.01272200       6.37288760       5.63261462
W       11.26590250       7.96610950       5.63261462
W       11.26590250       6.37288760       7.88565765
W       13.51908301       7.96610950       7.88565765
W        9.01272200       6.37288760      10.13875225
W       11.26590250       7.96610950      10.13875225
W       11.26590250       6.37288760      12.39188965
W       13.51908301       7.96610950      12.39188965
W       13.51908301       6.37288760      14.64501694
W       11.26590250       7.96610950      14.64501694
W       11.26590250       6.37288760      16.89815510
W        9.01272200       7.96610950      16.89815510
W        9.01272200       6.37288760      20.68973784
W       11.26590250       7.96610950      20.68973784
W       11.26590250       6.37288760      22.94287600
W        9.01272200       7.96610950      22.94287600
W        9.01272200       6.37288760      25.19600329
W       11.26590250       7.96610950      25.19600329
W       11.26590250       6.37288760      27.44914068
W        9.01272200       7.96610950      27.44914068
W       13.51908301       6.37288760      29.70223529
W       11.26590250       7.96610950      29.70223529
W       11.26590250       6.37288760      31.95527831
W        9.01272200       7.96610950      31.95527831
W        9.01272200       6.37288760      34.20827460
W       11.26590250       7.96610950      34.20827460
W       11.26590250       6.37288760      36.46133704
W        9.01272200       7.96610950      36.46133704
288
Lattice="13.519083005276505 3.9762680028551066e-17 -4.0430281816947754e-17 2.832107032207403e-17 9.559331404516637 -2.7421228983415876e-17 -9.765279892702126e-17 -9.449974793418939e-17 37.6904570395554" Properties=species:S:1:pos:R:3 vacuum_gap_Ang=1.641025641025641 frame_index=16 pbc="T T T"
W       -0.00000000       0.00000000       1.12655590
W        2.25318050       1.59322190       1.12655590
W        2.25318050       0.00000000       3.37961833
W        4.50636100       1.59322190       3.37961833
W       -0.00000000       0.00000000       5.63261462
W        2.25318050       1.59322190       5.63261462
W        2.25318050      -0.00000000       7.88565765
W        4.50636100       1.59322190       7.88565765
W       -0.00000000       0.00000000      10.13875225
W        2.25318050       1.59322190      10.13875225
W        2.25318050      -0.00000000      12.39188965
W        4.50636100       1.59322190      12.39188965
W        4.50636100      -0.00000000      14.64501694
W        2.25318050       1.59322190      14.64501694
W        2.25318050       0.00000000      16.89815510
W       -0.00000000       1.59322190      16.89815510
W       -0.00000000       0.00000000      20.79230194
W        2.25318050       1.59322190      20.79230194
W        2.25318050      -0.00000000      23.04544010
W       -0.00000000       1.59322190      23.04544010
W       -0.00000000      -0.00000000      25.29856739
W        2.25318050       1.59322190      25.29856739
W        2.25318050       0.00000000      27.55170479
W       -0.00000000       1.59322190      27.55170479
W        4.50636100      -0.00000000      29.80479939
W        2.25318050       1.59322190      29.80479939
W        2.25318050      -0.00000000      32.05784242
W       -0.00000000       1.59322190      32.05784242
W       -0.00000000      -0.00000000      34.31083871
W        2.25318050       1.59322190      34.31083871
W        2.25318050       0.00000000      36.56390114
W       -0.00000000       1.59322190      36.56390114
W       -0.00000000       3.18644380       1.12655590
W        2.25318050       4.77966570       1.12655590
W        2.25318050       3.18644380       3.37961833
W        4.50636100       4.77966570       3.37961833
W       -0.00000000       3.18644380       5.63261462
W        2.25318050       4.77966570       5.63261462
W        2.25318050       3.18644380       7.88565765
W        4.50636100       4.77966570       7.88565765
W       -0.00000000       3.18644380      10.13875225
W        2.25318050       4.77966570      10.13875225
W        2.25318050       3.18644380      12.39188965
W        4.50636100       4.77966570      12.39188965
W        4.50636100       3.18644380      14.64501694
W        2.25318050       4.77966570      14.64501694
W        2.25318050       3.18644380      16.89815510
W       -0.00000000       4.77966570      16.89815510
W       -0.00000000       3.18644380      20.79230194
W        2.25318050       4.77966570      20.79230194
W        2.25318050       3.18644380      23.04544010
W       -0.00000000       4.77966570      23.04544010
W       -0.00000000       3.18644380      25.29856739
W        2.25318050       4.77966570      25.29856739
W        2.25318050       3.18644380      27.55170479
W       -0.00000000       4.77966570      27.55170479
W        4.50636100       3.18644380      29.80479939
W        2.25318050       4.77966570      29.80479939
W        2.25318050       3.18644380      32.05784242
W       -0.00000000       4.77966570      32.05784242
W       -0.00000000       3.18644380      34.31083871
W        2.25318050       4.77966570      34.31083871
W        2.25318050       3.18644380      36.56390114
W       -0.00000000       4.77966570      36.56390114
W       -0.00000000       6.37288760       1.12655590
W        2.25318050       7.96610950       1.12655590
W        2.25318050       6.37288760       3.37961833
W        4.50636100       7.96610950       3.37961833
W       -0.00000000       6.37288760       5.63261462
W        2.25318050       7.96610950       5.63261462
W        2.25318050       6.37288760       7.88565765
W        4.50636100       7.96610950       7.88565765
W        0.00000000       6.37288760      10.13875225
W        2.25318050       7.96610950      10.13875225
W        2.25318050       6.37288760      12.39188965
W        4.50636100       7.96610950      12.39188965
W        4.50636100       6.37288760      14.64501694
W        2.25318050       7.96610950      14.64501694
W        2.25318050       6.37288760      16.89815510
W       -0.00000000       7.96610950      16.89815510
W       -0.00000000       6.37288760      20.79230194
W        2.25318050       7.96610950      20.79230194
W        2.25318050       6.37288760      23.04544010
W       -0.00000000       7.96610950      23.04544010
W       -0.00000000       6.37288760      25.29856739
W        2.25318050       7.96610950      25.29856739
W        2.25318050       6.37288760      27.55170479
W       -0.00000000       7.96610950      27.55170479
W        4.50636100       6.37288760      29.80479939
W        2.25318050       7.96610950      29.80479939
W        2.25318050       6.37288760      32.05784242
W       -0.00000000       7.96610950      32.05784242
W       -0.00000000       6.37288760      34.31083871
W        2.25318050       7.96610950      34.31083871
W        2.25318050       6.37288760      36.56390114
W       -0.00000000       7.96610950      36.56390114
W        4.50636100      -0.00000000       1.12655590
W        6.75954150       1.59322190       1.12655590
W        6.75954150       0.00000000       3.37961833
W        9.01272200       1.59322190       3.37961833
W        4.50636100       0.00000000       5.63261462
W        6.75954150       1.59322190       5.63261462
W        6.75954150      -0.00000000       7.88565765
W        9.01272200       1.59322190       7.88565765
W        4.50636100      -0.00000000      10.13875225
W        6.75954150       1.59322190      10.13875225
W        6.75954150       0.00000000      12.39188965
W        9.01272200       1.59322190      12.39188965
W        9.01272200      -0.00000000      14.64501694
W        6.75954150       1.59322190      14.64501694
W        6.75954150       0.00000000      16.89815510
W        4.50636100       1.59322190      16.89815510
W        4.50636100      -0.00000000      20.79230194
W        6.75954150       1.59322190      20.79230194
W        6.75954150      -0.00000000      23.04544010
W        4.50636100       1.59322190      23.04544010
W        4.50636100       0.00000000      25.29856739
W        6.75954150       1.59322190      25.29856739
W        6.75954150       0.00000000      27.55170479
W        4.50636100       1.59322190      27.55170479
W        9.01272200      -0.00000000      29.80479939
W        6.75954150       1.59322190      29.80479939
W        6.75954150      -0.00000000      32.05784242
W        4.50636100       1.59322190      32.05784242
W        4.50636100       0.00000000      34.31083871
W        6.75954150       1.59322190      34.31083871
W        6.75954150      -0.00000000      36.56390114
W        4.50636100       1.59322190      36.56390114
W        4.50636100       3.18644380       1.12655590
W        6.75954150       4.77966570       1.12655590
W        6.75954150       3.18644380       3.37961833
W        9.01272200       4.77966570       3.37961833
W        4.50636100       3.18644380       5.63261462
W        6.75954150       4.77966570       5.63261462
W        6.75954150       3.18644380       7.88565765
W        9.01272200       4.77966570       7.88565765
W        4.50636100       3.18644380      10.13875225
W        6.75954150       4.77966570      10.13875225
W        6.75954150       3.18644380      12.39188965
W        9.01272200       4.77966570      12.39188965
W        9.01272200       3.18644380      14.64501694
W        6.75954150       4.77966570      14.64501694
W        6.75954150       3.18644380      16.89815510
W        4.50636100       4.77966570      16.89815510
W        4.50636100       3.18644380      20.79230194
W        6.75954150       4.77966570      20.79230194
W        6.75954150       3.18644380      23.04544010
W        4.50636100       4.77966570      23.04544010
W        4.50636100       3.18644380      25.29856739
W        6.75954150       4.77966570      25.29856739
W        6.75954150       3.18644380      27.55170479
W        4.50636100       4.77966570      27.55170479
W        9.01272200       3.18644380      29.80479939
W        6.75954150       4.77966570      29.80479939
W        6.75954150       3.18644380      32.05784242
W        4.50636100       4.77966570      32.05784242
W        4.50636100       3.18644380      34.31083871
W        6.75954150       4.77966570      34.31083871
W        6.75954150       3.18644380      36.56390114
W        4.50636100       4.77966570      36.56390114
W        4.50636100       6.37288760       1.12655590
W        6.75954150       7.96610950       1.12655590
W        6.75954150       6.37288760       3.37961833
W        9.01272200       7.96610950       3.37961833
W        4.50636100       6.37288760       5.63261462
W        6.75954150       7.96610950       5.63261462
W        6.75954150       6.37288760       7.88565765
W        9.01272200       7.96610950       7.88565765
W        4.50636100       6.37288760      10.13875225
W        6.75954150       7.96610950      10.13875225
W        6.75954150       6.37288760      12.39188965
W        9.01272200       7.96610950      12.39188965
W        9.01272200       6.37288760      14.64501694
W        6.75954150       7.96610950      14.64501694
W        6.75954150       6.37288760      16.89815510
W        4.50636100       7.96610950      16.89815510
W        4.50636100       6.37288760      20.79230194
W        6.75954150       7.96610950      20.79230194
W        6.75954150       6.37288760      23.04544010
W        4.50636100       7.96610950      23.04544010
W        4.50636100       6.37288760      25.29856739
W        6.75954150       7.96610950      25.29856739
W        6.75954150       6.37288760      27.55170479
W        4.50636100       7.96610950      27.55170479
W        9.01272200       6.37288760      29.80479939
W        6.75954150       7.96610950      29.80479939
W        6.75954150       6.37288760      32.05784242
W        4.50636100       7.96610950      32.05784242
W        4.50636100       6.37288760      34.31083871
W        6.75954150       7.96610950      34.31083871
W        6.75954150       6.37288760      36.56390114
W        4.50636100       7.96610950      36.56390114
W        9.01272200      -0.00000000       1.12655590
W       11.26590250       1.59322190       1.12655590
W       11.26590250       0.00000000       3.37961833
W       13.51908301       1.59322190       3.37961833
W        9.01272200      -0.00000000       5.63261462
W       11.26590250       1.59322190       5.63261462
W       11.26590250      -0.00000000       7.88565765
W       13.51908301       1.59322190       7.88565765
W        9.01272200      -0.00000000      10.13875225
W       11.26590250       1.59322190      10.13875225
W       11.26590250       0.00000000      12.39188965
W       13.51908301       1.59322190      12.39188965
W       13.51908301      -0.00000000      14.64501694
W       11.26590250       1.59322190      14.64501694
W       11.26590250      -0.00000000      16.89815510
W        9.01272200       1.59322190      16.89815510
W        9.01272200      -0.00000000      20.79230194
W       11.26590250       1.59322190      20.79230194
W       11.26590250       0.00000000      23.04544010
W        9.01272200       1.59322190      23.04544010
W        9.01272200       0.00000000      25.29856739
W       11.26590250       1.59322190      25.29856739
W       11.26590250       0.00000000      27.55170479
W        9.01272200       1.59322190      27.55170479
W       13.51908301       0.00000000      29.80479939
W       11.26590250       1.59322190      29.80479939
W       11.26590250      -0.00000000      32.05784242
W        9.01272200       1.59322190      32.05784242
W        9.01272200      -0.00000000      34.31083871
W       11.26590250       1.59322190      34.31083871
W       11.26590250      -0.00000000      36.56390114
W        9.01272200       1.59322190      36.56390114
W        9.01272200       3.18644380       1.12655590
W       11.26590250       4.77966570       1.12655590
W       11.26590250       3.18644380       3.37961833
W       13.51908301       4.77966570       3.37961833
W        9.01272200       3.18644380       5.63261462
W       11.26590250       4.77966570       5.63261462
W       11.26590250       3.18644380       7.88565765
W       13.51908301       4.77966570       7.88565765
W        9.01272200       3.18644380      10.13875225
W       11.26590250       4.77966570      10.13875225
W       11.26590250       3.18644380      12.39188965
W       13.51908301       4.77966570      12.39188965
W       13.51908301       3.18644380      14.64501694
W       11.26590250       4.77966570      14.64501694
W       11.26590250       3.18644380      16.89815510
W        9.01272200       4.77966570      16.89815510
W        9.01272200       3.18644380      20.79230194
W       11.26590250       4.77966570      20.79230194
W       11.26590250       3.18644380      23.04544010
W        9.01272200       4.77966570      23.04544010
W        9.01272200       3.18644380      25.29856739
W       11.26590250       4.77966570      25.29856739
W       11.26590250       3.18644380      27.55170479
W        9.01272200       4.77966570      27.55170479
W       13.51908301       3.18644380      29.80479939
W       11.26590250       4.77966570      29.80479939
W       11.26590250       3.18644380      32.05784242
W        9.01272200       4.77966570      32.05784242
W        9.01272200       3.18644380      34.31083871
W       11.26590250       4.77966570      34.31083871
W       11.26590250       3.18644380      36.56390114
W        9.01272200       4.77966570      36.56390114
W        9.01272200       6.37288760       1.12655590
W       11.26590250       7.96610950       1.12655590
W       11.26590250       6.37288760       3.37961833
W       13.51908301       7.96610950       3.37961833
W        9.01272200       6.37288760       5.63261462
W       11.26590250       7.96610950       5.63261462
W       11.26590250       6.37288760       7.88565765
W       13.51908301       7.96610950       7.88565765
W        9.01272200       6.37288760      10.13875225
W       11.26590250       7.96610950      10.13875225
W       11.26590250       6.37288760      12.39188965
W       13.51908301       7.96610950      12.39188965
W       13.51908301       6.37288760      14.64501694
W       11.26590250       7.96610950      14.64501694
W       11.26590250       6.37288760      16.89815510
W        9.01272200       7.96610950      16.89815510
W        9.01272200       6.37288760      20.79230194
W       11.26590250       7.96610950      20.79230194
W       11.26590250       6.37288760      23.04544010
W        9.01272200       7.96610950      23.04544010
W        9.01272200       6.37288760      25.29856739
W       11.26590250       7.96610950      25.29856739
W       11.26590250       6.37288760      27.55170479
W        9.01272200       7.96610950      27.55170479
W       13.51908301       6.37288760      29.80479939
W       11.26590250       7.96610950      29.80479939
W       11.26590250       6.37288760      32.05784242
W        9.01272200       7.96610950      32.05784242
W        9.01272200       6.37288760      34.31083871
W       11.26590250       7.96610950      34.31083871
W       11.26590250       6.37288760      36.56390114
W        9.01272200       7.96610950      36.56390114
288
Lattice="13.519083005276505 3.9762680028551066e-17 -4.0430281816947754e-17 2.832107032207403e-17 9.559331404516637 -2.7421228983415876e-17 -9.765279892702126e-17 -9.449974793418939e-17 37.7930211421195" Properties=species:S:1:pos:R:3 vacuum_gap_Ang=1.7435897435897436 frame_index=17 pbc="T T T"
W       -0.00000000       0.00000000       1.12655590
W        2.25318050       1.59322190       1.12655590
W        2.25318050       0.00000000       3.37961833
W        4.50636100       1.59322190       3.37961833
W       -0.00000000       0.00000000       5.63261462
W        2.25318050       1.59322190       5.63261462
W        2.25318050      -0.00000000       7.88565765
W        4.50636100       1.59322190       7.88565765
W       -0.00000000       0.00000000      10.13875225
W        2.25318050       1.59322190      10.13875225
W        2.25318050      -0.00000000      12.39188965
W        4.50636100       1.59322190      12.39188965
W        4.50636100      -0.00000000      14.64501694
W        2.25318050       1.59322190      14.64501694
W        2.25318050       0.00000000      16.89815510
W       -0.00000000       1.59322190      16.89815510
W       -0.00000000       0.00000000      20.89486605
W        2.25318050       1.59322190      20.89486605
W        2.25318050      -0.00000000      23.14800420
W       -0.00000000       1.59322190      23.14800420
W       -0.00000000      -0.00000000      25.40113149
W        2.25318050       1.59322190      25.40113149
W        2.25318050       0.00000000      27.65426889
W       -0.00000000       1.59322190      27.65426889
W        4.50636100      -0.00000000      29.90736349
W        2.25318050       1.59322190      29.90736349
W        2.25318050      -0.00000000      32.16040652
W       -0.00000000       1.59322190      32.16040652
W       -0.00000000      -0.00000000      34.41340281
W        2.25318050       1.59322190      34.41340281
W        2.25318050       0.00000000      36.66646524
W       -0.00000000       1.59322190      36.66646524
W       -0.00000000       3.18644380       1.12655590
W        2.25318050       4.77966570       1.12655590
W        2.25318050       3.18644380       3.37961833
W        4.50636100       4.77966570       3.37961833
W       -0.00000000       3.18644380       5.63261462
W        2.25318050       4.77966570       5.63261462
W        2.25318050       3.18644380       7.88565765
W        4.50636100       4.77966570       7.88565765
W       -0.00000000       3.18644380      10.13875225
W        2.25318050       4.77966570      10.13875225
W        2.25318050       3.18644380      12.39188965
W        4.50636100       4.77966570      12.39188965
W        4.50636100       3.18644380      14.64501694
W        2.25318050       4.77966570      14.64501694
W        2.25318050       3.18644380      16.89815510
W       -0.00000000       4.77966570      16.89815510
W       -0.00000000       3.18644380      20.89486605
W        2.25318050       4.77966570      20.89486605
W        2.25318050       3.18644380      23.14800420
W       -0.00000000       4.77966570      23.14800420
W       -0.00000000       3.18644380      25.40113149
W        2.25318050       4.77966570      25.40113149
W        2.25318050       3.18644380      27.65426889
W       -0.00000000       4.77966570      27.65426889
W        4.50636100       3.18644380      29.90736349
W        2.25318050       4.77966570      29.90736349
W        2.25318050       3.18644380      32.16040652
W       -0.00000000       4.77966570      32.16040652
W       -0.00000000       3.18644380      34.41340281
W        2.25318050       4.77966570      34.41340281
W        2.25318050       3.18644380      36.66646524
W       -0.00000000       4.77966570      36.66646524
W       -0.00000000       6.37288760       1.12655590
W        2.25318050       7.96610950       1.12655590
W        2.25318050       6.37288760       3.37961833
W        4.50636100       7.96610950       3.37961833
W       -0.00000000       6.37288760       5.63261462
W        2.25318050       7.96610950       5.63261462
W        2.25318050       6.37288760       7.88565765
W        4.50636100       7.96610950       7.88565765
W        0.00000000       6.37288760      10.13875225
W        2.25318050       7.96610950      10.13875225
W        2.25318050       6.37288760      12.39188965
W        4.50636100       7.96610950      12.39188965
W        4.50636100       6.37288760      14.64501694
W        2.25318050       7.96610950      14.64501694
W        2.25318050       6.37288760      16.89815510
W       -0.00000000       7.96610950      16.89815510
W       -0.00000000       6.37288760      20.89486605
W        2.25318050       7.96610950      20.89486605
W        2.25318050       6.37288760      23.14800420
W       -0.00000000       7.96610950      23.14800420
W       -0.00000000       6.37288760      25.40113149
W        2.25318050       7.96610950      25.40113149
W        2.25318050       6.37288760      27.65426889
W       -0.00000000       7.96610950      27.65426889
W        4.50636100       6.37288760      29.90736349
W        2.25318050       7.96610950      29.90736349
W        2.25318050       6.37288760      32.16040652
W       -0.00000000       7.96610950      32.16040652
W       -0.00000000       6.37288760      34.41340281
W        2.25318050       7.96610950      34.41340281
W        2.25318050       6.37288760      36.66646524
W       -0.00000000       7.96610950      36.66646524
W        4.50636100      -0.00000000       1.12655590
W        6.75954150       1.59322190       1.12655590
W        6.75954150       0.00000000       3.37961833
W        9.01272200       1.59322190       3.37961833
W        4.50636100       0.00000000       5.63261462
W        6.75954150       1.59322190       5.63261462
W        6.75954150      -0.00000000       7.88565765
W        9.01272200       1.59322190       7.88565765
W        4.50636100      -0.00000000      10.13875225
W        6.75954150       1.59322190      10.13875225
W        6.75954150       0.00000000      12.39188965
W        9.01272200       1.59322190      12.39188965
W        9.01272200      -0.00000000      14.64501694
W        6.75954150       1.59322190      14.64501694
W        6.75954150       0.00000000      16.89815510
W        4.50636100       1.59322190      16.89815510
W        4.50636100      -0.00000000      20.89486605
W        6.75954150       1.59322190      20.89486605
W        6.75954150      -0.00000000      23.14800420
W        4.50636100       1.59322190      23.14800420
W        4.50636100       0.00000000      25.40113149
W        6.75954150       1.59322190      25.40113149
W        6.75954150       0.00000000      27.65426889
W        4.50636100       1.59322190      27.65426889
W        9.01272200      -0.00000000      29.90736349
W        6.75954150       1.59322190      29.90736349
W        6.75954150      -0.00000000      32.16040652
W        4.50636100       1.59322190      32.16040652
W        4.50636100       0.00000000      34.41340281
W        6.75954150       1.59322190      34.41340281
W        6.75954150      -0.00000000      36.66646524
W        4.50636100       1.59322190      36.66646524
W        4.50636100       3.18644380       1.12655590
W        6.75954150       4.77966570       1.12655590
W        6.75954150       3.18644380       3.37961833
W        9.01272200       4.77966570       3.37961833
W        4.50636100       3.18644380       5.63261462
W        6.75954150       4.77966570       5.63261462
W        6.75954150       3.18644380       7.88565765
W        9.01272200       4.77966570       7.88565765
W        4.50636100       3.18644380      10.13875225
W        6.75954150       4.77966570      10.13875225
W        6.75954150       3.18644380      12.39188965
W        9.01272200       4.77966570      12.39188965
W        9.01272200       3.18644380      14.64501694
W        6.75954150       4.77966570      14.64501694
W        6.75954150       3.18644380      16.89815510
W        4.50636100       4.77966570      16.89815510
W        4.50636100       3.18644380      20.89486605
W        6.75954150       4.77966570      20.89486605
W        6.75954150       3.18644380      23.14800420
W        4.50636100       4.77966570      23.14800420
W        4.50636100       3.18644380      25.40113149
W        6.75954150       4.77966570      25.40113149
W        6.75954150       3.18644380      27.65426889
W        4.50636100       4.77966570      27.65426889
W        9.01272200       3.18644380      29.90736349
W        6.75954150       4.77966570      29.90736349
W        6.75954150       3.18644380      32.16040652
W        4.50636100       4.77966570      32.16040652
W        4.50636100       3.18644380      34.41340281
W        6.75954150       4.77966570      34.41340281
W        6.75954150       3.18644380      36.66646524
W        4.50636100       4.77966570      36.66646524
W        4.50636100       6.37288760       1.12655590
W        6.75954150       7.96610950       1.12655590
W        6.75954150       6.37288760       3.37961833
W        9.01272200       7.96610950       3.37961833
W        4.50636100       6.37288760       5.63261462
W        6.75954150       7.96610950       5.63261462
W        6.75954150       6.37288760       7.88565765
W        9.01272200       7.96610950       7.88565765
W        4.50636100       6.37288760      10.13875225
W        6.75954150       7.96610950      10.13875225
W        6.75954150       6.37288760      12.39188965
W        9.01272200       7.96610950      12.39188965
W        9.01272200       6.37288760      14.64501694
W        6.75954150       7.96610950      14.64501694
W        6.75954150       6.37288760      16.89815510
W        4.50636100       7.96610950      16.89815510
W        4.50636100       6.37288760      20.89486605
W        6.75954150       7.96610950      20.89486605
W        6.75954150       6.37288760      23.14800420
W        4.50636100       7.96610950      23.14800420
W        4.50636100       6.37288760      25.40113149
W        6.75954150       7.96610950      25.40113149
W        6.75954150       6.37288760      27.65426889
W        4.50636100       7.96610950      27.65426889
W        9.01272200       6.37288760      29.90736349
W        6.75954150       7.96610950      29.90736349
W        6.75954150       6.37288760      32.16040652
W        4.50636100       7.96610950      32.16040652
W        4.50636100       6.37288760      34.41340281
W        6.75954150       7.96610950      34.41340281
W        6.75954150       6.37288760      36.66646524
W        4.50636100       7.96610950      36.66646524
W        9.01272200      -0.00000000       1.12655590
W       11.26590250       1.59322190       1.12655590
W       11.26590250       0.00000000       3.37961833
W       13.51908301       1.59322190       3.37961833
W        9.01272200      -0.00000000       5.63261462
W       11.26590250       1.59322190       5.63261462
W       11.26590250      -0.00000000       7.88565765
W       13.51908301       1.59322190       7.88565765
W        9.01272200      -0.00000000      10.13875225
W       11.26590250       1.59322190      10.13875225
W       11.26590250       0.00000000      12.39188965
W       13.51908301       1.59322190      12.39188965
W       13.51908301      -0.00000000      14.64501694
W       11.26590250       1.59322190      14.64501694
W       11.26590250      -0.00000000      16.89815510
W        9.01272200       1.59322190      16.89815510
W        9.01272200      -0.00000000      20.89486605
W       11.26590250       1.59322190      20.89486605
W       11.26590250       0.00000000      23.14800420
W        9.01272200       1.59322190      23.14800420
W        9.01272200       0.00000000      25.40113149
W       11.26590250       1.59322190      25.40113149
W       11.26590250       0.00000000      27.65426889
W        9.01272200       1.59322190      27.65426889
W       13.51908301       0.00000000      29.90736349
W       11.26590250       1.59322190      29.90736349
W       11.26590250      -0.00000000      32.16040652
W        9.01272200       1.59322190      32.16040652
W        9.01272200      -0.00000000      34.41340281
W       11.26590250       1.59322190      34.41340281
W       11.26590250      -0.00000000      36.66646524
W        9.01272200       1.59322190      36.66646524
W        9.01272200       3.18644380       1.12655590
W       11.26590250       4.77966570       1.12655590
W       11.26590250       3.18644380       3.37961833
W       13.51908301       4.77966570       3.37961833
W        9.01272200       3.18644380       5.63261462
W       11.26590250       4.77966570       5.63261462
W       11.26590250       3.18644380       7.88565765
W       13.51908301       4.77966570       7.88565765
W        9.01272200       3.18644380      10.13875225
W       11.26590250       4.77966570      10.13875225
W       11.26590250       3.18644380      12.39188965
W       13.51908301       4.77966570      12.39188965
W       13.51908301       3.18644380      14.64501694
W       11.26590250       4.77966570      14.64501694
W       11.26590250       3.18644380      16.89815510
W        9.01272200       4.77966570      16.89815510
W        9.01272200       3.18644380      20.89486605
W       11.26590250       4.77966570      20.89486605
W       11.26590250       3.18644380      23.14800420
W        9.01272200       4.77966570      23.14800420
W        9.01272200       3.18644380      25.40113149
W       11.26590250       4.77966570      25.40113149
W       11.26590250       3.18644380      27.65426889
W        9.01272200       4.77966570      27.65426889
W       13.51908301       3.18644380      29.90736349
W       11.26590250       4.77966570      29.90736349
W       11.26590250       3.18644380      32.16040652
W        9.01272200       4.77966570      32.16040652
W        9.01272200       3.18644380      34.41340281
W       11.26590250       4.77966570      34.41340281
W       11.26590250       3.18644380      36.66646524
W        9.01272200       4.77966570      36.66646524
W        9.01272200       6.37288760       1.12655590
W       11.26590250       7.96610950       1.12655590
W       11.26590250       6.37288760       3.37961833
W       13.51908301       7.96610950       3.37961833
W        9.01272200       6.37288760       5.63261462
W       11.26590250       7.96610950       5.63261462
W       11.26590250       6.37288760       7.88565765
W       13.51908301       7.96610950       7.88565765
W        9.01272200       6.37288760      10.13875225
W       11.26590250       7.96610950      10.13875225
W       11.26590250       6.37288760      12.39188965
W       13.51908301       7.96610950      12.39188965
W       13.51908301       6.37288760      14.64501694
W       11.26590250       7.96610950      14.64501694
W       11.26590250       6.37288760      16.89815510
W        9.01272200       7.96610950      16.89815510
W        9.01272200       6.37288760      20.89486605
W       11.26590250       7.96610950      20.89486605
W       11.26590250       6.37288760      23.14800420
W        9.01272200       7.96610950      23.14800420
W        9.01272200       6.37288760      25.40113149
W       11.26590250       7.96610950      25.40113149
W       11.26590250       6.37288760      27.65426889
W        9.01272200       7.96610950      27.65426889
W       13.51908301       6.37288760      29.90736349
W       11.26590250       7.96610950      29.90736349
W       11.26590250       6.37288760      32.16040652
W        9.01272200       7.96610950      32.16040652
W        9.01272200       6.37288760      34.41340281
W       11.26590250       7.96610950      34.41340281
W       11.26590250       6.37288760      36.66646524
W        9.01272200       7.96610950      36.66646524
288
Lattice="13.519083005276505 3.9762680028551066e-17 -4.0430281816947754e-17 2.832107032207403e-17 9.559331404516637 -2.7421228983415876e-17 -9.765279892702126e-17 -9.449974793418939e-17 37.8955852446836" Properties=species:S:1:pos:R:3 vacuum_gap_Ang=1.846153846153846 frame_index=18 pbc="T T T"
W       -0.00000000       0.00000000       1.12655590
W        2.25318050       1.59322190       1.12655590
W        2.25318050       0.00000000       3.37961833
W        4.50636100       1.59322190       3.37961833
W       -0.00000000       0.00000000       5.63261462
W        2.25318050       1.59322190       5.63261462
W        2.25318050      -0.00000000       7.88565765
W        4.50636100       1.59322190       7.88565765
W       -0.00000000       0.00000000      10.13875225
W        2.25318050       1.59322190      10.13875225
W        2.25318050      -0.00000000      12.39188965
W        4.50636100       1.59322190      12.39188965
W        4.50636100      -0.00000000      14.64501694
W        2.25318050       1.59322190      14.64501694
W        2.25318050       0.00000000      16.89815510
W       -0.00000000       1.59322190      16.89815510
W       -0.00000000       0.00000000      20.99743015
W        2.25318050       1.59322190      20.99743015
W        2.25318050      -0.00000000      23.25056830
W       -0.00000000       1.59322190      23.25056830
W       -0.00000000      -0.00000000      25.50369560
W        2.25318050       1.59322190      25.50369560
W        2.25318050       0.00000000      27.75683299
W       -0.00000000       1.59322190      27.75683299
W        4.50636100      -0.00000000      30.00992759
W        2.25318050       1.59322190      30.00992759
W        2.25318050      -0.00000000      32.26297062
W       -0.00000000       1.59322190      32.26297062
W       -0.00000000      -0.00000000      34.51596691
W        2.25318050       1.59322190      34.51596691
W        2.25318050       0.00000000      36.76902935
W       -0.00000000       1.59322190      36.76902935
W       -0.00000000       3.18644380       1.12655590
W        2.25318050       4.77966570       1.12655590
W        2.25318050       3.18644380       3.37961833
W        4.50636100       4.77966570       3.37961833
W       -0.00000000       3.18644380       5.63261462
W        2.25318050       4.77966570       5.63261462
W        2.25318050       3.18644380       7.88565765
W        4.50636100       4.77966570       7.88565765
W       -0.00000000       3.18644380      10.13875225
W        2.25318050       4.77966570      10.13875225
W        2.25318050       3.18644380      12.39188965
W        4.50636100       4.77966570      12.39188965
W        4.50636100       3.18644380      14.64501694
W        2.25318050       4.77966570      14.64501694
W        2.25318050       3.18644380      16.89815510
W       -0.00000000       4.77966570      16.89815510
W       -0.00000000       3.18644380      20.99743015
W        2.25318050       4.77966570      20.99743015
W        2.25318050       3.18644380      23.25056830
W       -0.00000000       4.77966570      23.25056830
W       -0.00000000       3.18644380      25.50369560
W        2.25318050       4.77966570      25.50369560
W        2.25318050       3.18644380      27.75683299
W       -0.00000000       4.77966570      27.75683299
W        4.50636100       3.18644380      30.00992759
W        2.25318050       4.77966570      30.00992759
W        2.25318050       3.18644380      32.26297062
W       -0.00000000       4.77966570      32.26297062
W       -0.00000000       3.18644380      34.51596691
W        2.25318050       4.77966570      34.51596691
W        2.25318050       3.18644380      36.76902935
W       -0.00000000       4.77966570      36.76902935
W       -0.00000000       6.37288760       1.12655590
W        2.25318050       7.96610950       1.12655590
W        2.25318050       6.37288760       3.37961833
W        4.50636100       7.96610950       3.37961833
W       -0.00000000       6.37288760       5.63261462
W        2.25318050       7.96610950       5.63261462
W        2.25318050       6.37288760       7.88565765
W        4.50636100       7.96610950       7.88565765
W        0.00000000       6.37288760      10.13875225
W        2.25318050       7.96610950      10.13875225
W        2.25318050       6.37288760      12.39188965
W        4.50636100       7.96610950      12.39188965
W        4.50636100       6.37288760      14.64501694
W        2.25318050       7.96610950      14.64501694
W        2.25318050       6.37288760      16.89815510
W       -0.00000000       7.96610950      16.89815510
W       -0.00000000       6.37288760      20.99743015
W        2.25318050       7.96610950      20.99743015
W        2.25318050       6.37288760      23.25056830
W       -0.00000000       7.96610950      23.25056830
W       -0.00000000       6.37288760      25.50369560
W        2.25318050       7.96610950      25.50369560
W        2.25318050       6.37288760      27.75683299
W       -0.00000000       7.96610950      27.75683299
W        4.50636100       6.37288760      30.00992759
W        2.25318050       7.96610950      30.00992759
W        2.25318050       6.37288760      32.26297062
W       -0.00000000       7.96610950      32.26297062
W       -0.00000000       6.37288760      34.51596691
W        2.25318050       7.96610950      34.51596691
W        2.25318050       6.37288760      36.76902935
W       -0.00000000       7.96610950      36.76902935
W        4.50636100      -0.00000000       1.12655590
W        6.75954150       1.59322190       1.12655590
W        6.75954150       0.00000000       3.37961833
W        9.01272200       1.59322190       3.37961833
W        4.50636100       0.00000000       5.63261462
W        6.75954150       1.59322190       5.63261462
W        6.75954150      -0.00000000       7.88565765
W        9.01272200       1.59322190       7.88565765
W        4.50636100      -0.00000000      10.13875225
W        6.75954150       1.59322190      10.13875225
W        6.75954150       0.00000000      12.39188965
W        9.01272200       1.59322190      12.39188965
W        9.01272200      -0.00000000      14.64501694
W        6.75954150       1.59322190      14.64501694
W        6.75954150       0.00000000      16.89815510
W        4.50636100       1.59322190      16.89815510
W        4.50636100      -0.00000000      20.99743015
W        6.75954150       1.59322190      20.99743015
W        6.75954150      -0.00000000      23.25056830
W        4.50636100       1.59322190      23.25056830
W        4.50636100       0.00000000      25.50369560
W        6.75954150       1.59322190      25.50369560
W        6.75954150       0.00000000      27.75683299
W        4.50636100       1.59322190      27.75683299
W        9.01272200      -0.00000000      30.00992759
W        6.75954150       1.59322190      30.00992759
W        6.75954150      -0.00000000      32.26297062
W        4.50636100       1.59322190      32.26297062
W        4.50636100       0.00000000      34.51596691
W        6.75954150       1.59322190      34.51596691
W        6.75954150      -0.00000000      36.76902935
W        4.50636100       1.59322190      36.76902935
W        4.50636100       3.18644380       1.12655590
W        6.75954150       4.77966570       1.12655590
W        6.75954150       3.18644380       3.37961833
W        9.01272200       4.77966570       3.37961833
W        4.50636100       3.18644380       5.63261462
W        6.75954150       4.77966570       5.63261462
W        6.75954150       3.18644380       7.88565765
W        9.01272200       4.77966570       7.88565765
W        4.50636100       3.18644380      10.13875225
W        6.75954150       4.77966570      10.13875225
W        6.75954150       3.18644380      12.39188965
W        9.01272200       4.77966570      12.39188965
W        9.01272200       3.18644380      14.64501694
W        6.75954150       4.77966570      14.64501694
W        6.75954150       3.18644380      16.89815510
W        4.50636100       4.77966570      16.89815510
W        4.50636100       3.18644380      20.99743015
W        6.75954150       4.77966570      20.99743015
W        6.75954150       3.18644380      23.25056830
W        4.50636100       4.77966570      23.25056830
W        4.50636100       3.18644380      25.50369560
W        6.75954150       4.77966570      25.50369560
W        6.75954150       3.18644380      27.75683299
W        4.50636100       4.77966570      27.75683299
W        9.01272200       3.18644380      30.00992759
W        6.75954150       4.77966570      30.00992759
W        6.75954150       3.18644380      32.26297062
W        4.50636100       4.77966570      32.26297062
W        4.50636100       3.18644380      34.51596691
W        6.75954150       4.77966570      34.51596691
W        6.75954150       3.18644380      36.76902935
W        4.50636100       4.77966570      36.76902935
W        4.50636100       6.37288760       1.12655590
W        6.75954150       7.96610950       1.12655590
W        6.75954150       6.37288760       3.37961833
W        9.01272200       7.96610950       3.37961833
W        4.50636100       6.37288760       5.63261462
W        6.75954150       7.96610950       5.63261462
W        6.75954150       6.37288760       7.88565765
W        9.01272200       7.96610950       7.88565765
W        4.50636100       6.37288760      10.13875225
W        6.75954150       7.96610950      10.13875225
W        6.75954150       6.37288760      12.39188965
W        9.01272200       7.96610950      12.39188965
W        9.01272200       6.37288760      14.64501694
W        6.75954150       7.96610950      14.64501694
W        6.75954150       6.37288760      16.89815510
W        4.50636100       7.96610950      16.89815510
W        4.50636100       6.37288760      20.99743015
W        6.75954150       7.96610950      20.99743015
W        6.75954150       6.37288760      23.25056830
W        4.50636100       7.96610950      23.25056830
W        4.50636100       6.37288760      25.50369560
W        6.75954150       7.96610950      25.50369560
W        6.75954150       6.37288760      27.75683299
W        4.50636100       7.96610950      27.75683299
W        9.01272200       6.37288760      30.00992759
W        6.75954150       7.96610950      30.00992759
W        6.75954150       6.37288760      32.26297062
W        4.50636100       7.96610950      32.26297062
W        4.50636100       6.37288760      34.51596691
W        6.75954150       7.96610950      34.51596691
W        6.75954150       6.37288760      36.76902935
W        4.50636100       7.96610950      36.76902935
W        9.01272200      -0.00000000       1.12655590
W       11.26590250       1.59322190       1.12655590
W       11.26590250       0.00000000       3.37961833
W       13.51908301       1.59322190       3.37961833
W        9.01272200      -0.00000000       5.63261462
W       11.26590250       1.59322190       5.63261462
W       11.26590250      -0.00000000       7.88565765
W       13.51908301       1.59322190       7.88565765
W        9.01272200      -0.00000000      10.13875225
W       11.26590250       1.59322190      10.13875225
W       11.26590250       0.00000000      12.39188965
W       13.51908301       1.59322190      12.39188965
W       13.51908301      -0.00000000      14.64501694
W       11.26590250       1.59322190      14.64501694
W       11.26590250      -0.00000000      16.89815510
W        9.01272200       1.59322190      16.89815510
W        9.01272200      -0.00000000      20.99743015
W       11.26590250       1.59322190      20.99743015
W       11.26590250       0.00000000      23.25056830
W        9.01272200       1.59322190      23.25056830
W        9.01272200       0.00000000      25.50369560
W       11.26590250       1.59322190      25.50369560
W       11.26590250       0.00000000      27.75683299
W        9.01272200       1.59322190      27.75683299
W       13.51908301       0.00000000      30.00992759
W       11.26590250       1.59322190      30.00992759
W       11.26590250      -0.00000000      32.26297062
W        9.01272200       1.59322190      32.26297062
W        9.01272200      -0.00000000      34.51596691
W       11.26590250       1.59322190      34.51596691
W       11.26590250      -0.00000000      36.76902935
W        9.01272200       1.59322190      36.76902935
W        9.01272200       3.18644380       1.12655590
W       11.26590250       4.77966570       1.12655590
W       11.26590250       3.18644380       3.37961833
W       13.51908301       4.77966570       3.37961833
W        9.01272200       3.18644380       5.63261462
W       11.26590250       4.77966570       5.63261462
W       11.26590250       3.18644380       7.88565765
W       13.51908301       4.77966570       7.88565765
W        9.01272200       3.18644380      10.13875225
W       11.26590250       4.77966570      10.13875225
W       11.26590250       3.18644380      12.39188965
W       13.51908301       4.77966570      12.39188965
W       13.51908301       3.18644380      14.64501694
W       11.26590250       4.77966570      14.64501694
W       11.26590250       3.18644380      16.89815510
W        9.01272200       4.77966570      16.89815510
W        9.01272200       3.18644380      20.99743015
W       11.26590250       4.77966570      20.99743015
W       11.26590250       3.18644380      23.25056830
W        9.01272200       4.77966570      23.25056830
W        9.01272200       3.18644380      25.50369560
W       11.26590250       4.77966570      25.50369560
W       11.26590250       3.18644380      27.75683299
W        9.01272200       4.77966570      27.75683299
W       13.51908301       3.18644380      30.00992759
W       11.26590250       4.77966570      30.00992759
W       11.26590250       3.18644380      32.26297062
W        9.01272200       4.77966570      32.26297062
W        9.01272200       3.18644380      34.51596691
W       11.26590250       4.77966570      34.51596691
W       11.26590250       3.18644380      36.76902935
W        9.01272200       4.77966570      36.76902935
W        9.01272200       6.37288760       1.12655590
W       11.26590250       7.96610950       1.12655590
W       11.26590250       6.37288760       3.37961833
W       13.51908301       7.96610950       3.37961833
W        9.01272200       6.37288760       5.63261462
W       11.26590250       7.96610950       5.63261462
W       11.26590250       6.37288760       7.88565765
W       13.51908301       7.96610950       7.88565765
W        9.01272200       6.37288760      10.13875225
W       11.26590250       7.96610950      10.13875225
W       11.26590250       6.37288760      12.39188965
W       13.51908301       7.96610950      12.39188965
W       13.51908301       6.37288760      14.64501694
W       11.26590250       7.96610950      14.64501694
W       11.26590250       6.37288760      16.89815510
W        9.01272200       7.96610950      16.89815510
W        9.01272200       6.37288760      20.99743015
W       11.26590250       7.96610950      20.99743015
W       11.26590250       6.37288760      23.25056830
W        9.01272200       7.96610950      23.25056830
W        9.01272200       6.37288760      25.50369560
W       11.26590250       7.96610950      25.50369560
W       11.26590250       6.37288760      27.75683299
W        9.01272200       7.96610950      27.75683299
W       13.51908301       6.37288760      30.00992759
W       11.26590250       7.96610950      30.00992759
W       11.26590250       6.37288760      32.26297062
W        9.01272200       7.96610950      32.26297062
W        9.01272200       6.37288760      34.51596691
W       11.26590250       7.96610950      34.51596691
W       11.26590250       6.37288760      36.76902935
W        9.01272200       7.96610950      36.76902935
288
Lattice="13.519083005276505 3.9762680028551066e-17 -4.0430281816947754e-17 2.832107032207403e-17 9.559331404516637 -2.7421228983415876e-17 -9.765279892702126e-17 -9.449974793418939e-17 37.998149347247704" Properties=species:S:1:pos:R:3 vacuum_gap_Ang=1.9487179487179487 frame_index=19 pbc="T T T"
W       -0.00000000       0.00000000       1.12655590
W        2.25318050       1.59322190       1.12655590
W        2.25318050       0.00000000       3.37961833
W        4.50636100       1.59322190       3.37961833
W       -0.00000000       0.00000000       5.63261462
W        2.25318050       1.59322190       5.63261462
W        2.25318050      -0.00000000       7.88565765
W        4.50636100       1.59322190       7.88565765
W       -0.00000000       0.00000000      10.13875225
W        2.25318050       1.59322190      10.13875225
W        2.25318050      -0.00000000      12.39188965
W        4.50636100       1.59322190      12.39188965
W        4.50636100      -0.00000000      14.64501694
W        2.25318050       1.59322190      14.64501694
W        2.25318050       0.00000000      16.89815510
W       -0.00000000       1.59322190      16.89815510
W       -0.00000000       0.00000000      21.09999425
W        2.25318050       1.59322190      21.09999425
W        2.25318050      -0.00000000      23.35313241
W       -0.00000000       1.59322190      23.35313241
W       -0.00000000      -0.00000000      25.60625970
W        2.25318050       1.59322190      25.60625970
W        2.25318050       0.00000000      27.85939710
W       -0.00000000       1.59322190      27.85939710
W        4.50636100      -0.00000000      30.11249170
W        2.25318050       1.59322190      30.11249170
W        2.25318050      -0.00000000      32.36553472
W       -0.00000000       1.59322190      32.36553472
W       -0.00000000      -0.00000000      34.61853101
W        2.25318050       1.59322190      34.61853101
W        2.25318050       0.00000000      36.87159345
W       -0.00000000       1.59322190      36.87159345
W       -0.00000000       3.18644380       1.12655590
W        2.25318050       4.77966570       1.12655590
W        2.25318050       3.18644380       3.37961833
W        4.50636100       4.77966570       3.37961833
W       -0.00000000       3.18644380       5.63261462
W        2.25318050       4.77966570       5.63261462
W        2.25318050       3.18644380       7.88565765
W        4.50636100       4.77966570       7.88565765
W       -0.00000000       3.18644380      10.13875225
W        2.25318050       4.77966570      10.13875225
W        2.25318050       3.18644380      12.39188965
W        4.50636100       4.77966570      12.39188965
W        4.50636100       3.18644380      14.64501694
W        2.25318050       4.77966570      14.64501694
W        2.25318050       3.18644380      16.89815510
W       -0.00000000       4.77966570      16.89815510
W       -0.00000000       3.18644380      21.09999425
W        2.25318050       4.77966570      21.09999425
W        2.25318050       3.18644380      23.35313241
W       -0.00000000       4.77966570      23.35313241
W       -0.00000000       3.18644380      25.60625970
W        2.25318050       4.77966570      25.60625970
W        2.25318050       3.18644380      27.85939710
W       -0.00000000       4.77966570      27.85939710
W        4.50636100       3.18644380      30.11249170
W        2.25318050       4.77966570      30.11249170
W        2.25318050       3.18644380      32.36553472
W       -0.00000000       4.77966570      32.36553472
W       -0.00000000       3.18644380      34.61853101
W        2.25318050       4.77966570      34.61853101
W        2.25318050       3.18644380      36.87159345
W       -0.00000000       4.77966570      36.87159345
W       -0.00000000       6.37288760       1.12655590
W        2.25318050       7.96610950       1.12655590
W        2.25318050       6.37288760       3.37961833
W        4.50636100       7.96610950       3.37961833
W       -0.00000000       6.37288760       5.63261462
W        2.25318050       7.96610950       5.63261462
W        2.25318050       6.37288760       7.88565765
W        4.50636100       7.96610950       7.88565765
W        0.00000000       6.37288760      10.13875225
W        2.25318050       7.96610950      10.13875225
W        2.25318050       6.37288760      12.39188965
W        4.50636100       7.96610950      12.39188965
W        4.50636100       6.37288760      14.64501694
W        2.25318050       7.96610950      14.64501694
W        2.25318050       6.37288760      16.89815510
W       -0.00000000       7.96610950      16.89815510
W       -0.00000000       6.37288760      21.09999425
W        2.25318050       7.96610950      21.09999425
W        2.25318050       6.37288760      23.35313241
W       -0.00000000       7.96610950      23.35313241
W       -0.00000000       6.37288760      25.60625970
W        2.25318050       7.96610950      25.60625970
W        2.25318050       6.37288760      27.85939710
W       -0.00000000       7.96610950      27.85939710
W        4.50636100       6.37288760      30.11249170
W        2.25318050       7.96610950      30.11249170
W        2.25318050       6.37288760      32.36553472
W       -0.00000000       7.96610950      32.36553472
W       -0.00000000       6.37288760      34.61853101
W        2.25318050       7.96610950      34.61853101
W        2.25318050       6.37288760      36.87159345
W       -0.00000000       7.96610950      36.87159345
W        4.50636100      -0.00000000       1.12655590
W        6.75954150       1.59322190       1.12655590
W        6.75954150       0.00000000       3.37961833
W        9.01272200       1.59322190       3.37961833
W        4.50636100       0.00000000       5.63261462
W        6.75954150       1.59322190       5.63261462
W        6.75954150      -0.00000000       7.88565765
W        9.01272200       1.59322190       7.88565765
W        4.50636100      -0.00000000      10.13875225
W        6.75954150       1.59322190      10.13875225
W        6.75954150       0.00000000      12.39188965
W        9.01272200       1.59322190      12.39188965
W        9.01272200      -0.00000000      14.64501694
W        6.75954150       1.59322190      14.64501694
W        6.75954150       0.00000000      16.89815510
W        4.50636100       1.59322190      16.89815510
W        4.50636100      -0.00000000      21.09999425
W        6.75954150       1.59322190      21.09999425
W        6.75954150      -0.00000000      23.35313241
W        4.50636100       1.59322190      23.35313241
W        4.50636100       0.00000000      25.60625970
W        6.75954150       1.59322190      25.60625970
W        6.75954150       0.00000000      27.85939710
W        4.50636100       1.59322190      27.85939710
W        9.01272200      -0.00000000      30.11249170
W        6.75954150       1.59322190      30.11249170
W        6.75954150      -0.00000000      32.36553472
W        4.50636100       1.59322190      32.36553472
W        4.50636100       0.00000000      34.61853101
W        6.75954150       1.59322190      34.61853101
W        6.75954150      -0.00000000      36.87159345
W        4.50636100       1.59322190      36.87159345
W        4.50636100       3.18644380       1.12655590
W        6.75954150       4.77966570       1.12655590
W        6.75954150       3.18644380       3.37961833
W        9.01272200       4.77966570       3.37961833
W        4.50636100       3.18644380       5.63261462
W        6.75954150       4.77966570       5.63261462
W        6.75954150       3.18644380       7.88565765
W        9.01272200       4.77966570       7.88565765
W        4.50636100       3.18644380      10.13875225
W        6.75954150       4.77966570      10.13875225
W        6.75954150       3.18644380      12.39188965
W        9.01272200       4.77966570      12.39188965
W        9.01272200       3.18644380      14.64501694
W        6.75954150       4.77966570      14.64501694
W        6.75954150       3.18644380      16.89815510
W        4.50636100       4.77966570      16.89815510
W        4.50636100       3.18644380      21.09999425
W        6.75954150       4.77966570      21.09999425
W        6.75954150       3.18644380      23.35313241
W        4.50636100       4.77966570      23.35313241
W        4.50636100       3.18644380      25.60625970
W        6.75954150       4.77966570      25.60625970
W        6.75954150       3.18644380      27.85939710
W        4.50636100       4.77966570      27.85939710
W        9.01272200       3.18644380      30.11249170
W        6.75954150       4.77966570      30.11249170
W        6.75954150       3.18644380      32.36553472
W        4.50636100       4.77966570      32.36553472
W        4.50636100       3.18644380      34.61853101
W        6.75954150       4.77966570      34.61853101
W        6.75954150       3.18644380      36.87159345
W        4.50636100       4.77966570      36.87159345
W        4.50636100       6.37288760       1.12655590
W        6.75954150       7.96610950       1.12655590
W        6.75954150       6.37288760       3.37961833
W        9.01272200       7.96610950       3.37961833
W        4.50636100       6.37288760       5.63261462
W        6.75954150       7.96610950       5.63261462
W        6.75954150       6.37288760       7.88565765
W        9.01272200       7.96610950       7.88565765
W        4.50636100       6.37288760      10.13875225
W        6.75954150       7.96610950      10.13875225
W        6.75954150       6.37288760      12.39188965
W        9.01272200       7.96610950      12.39188965
W        9.01272200       6.37288760      14.64501694
W        6.75954150       7.96610950      14.64501694
W        6.75954150       6.37288760      16.89815510
W        4.50636100       7.96610950      16.89815510
W        4.50636100       6.37288760      21.09999425
W        6.75954150       7.96610950      21.09999425
W        6.75954150       6.37288760      23.35313241
W        4.50636100       7.96610950      23.35313241
W        4.50636100       6.37288760      25.60625970
W        6.75954150       7.96610950      25.60625970
W        6.75954150       6.37288760      27.85939710
W        4.50636100       7.96610950      27.85939710
W        9.01272200       6.37288760      30.11249170
W        6.75954150       7.96610950      30.11249170
W        6.75954150       6.37288760      32.36553472
W        4.50636100       7.96610950      32.36553472
W        4.50636100       6.37288760      34.61853101
W        6.75954150       7.96610950      34.61853101
W        6.75954150       6.37288760      36.87159345
W        4.50636100       7.96610950      36.87159345
W        9.01272200      -0.00000000       1.12655590
W       11.26590250       1.59322190       1.12655590
W       11.26590250       0.00000000       3.37961833
W       13.51908301       1.59322190       3.37961833
W        9.01272200      -0.00000000       5.63261462
W       11.26590250       1.59322190       5.63261462
W       11.26590250      -0.00000000       7.88565765
W       13.51908301       1.59322190       7.88565765
W        9.01272200      -0.00000000      10.13875225
W       11.26590250       1.59322190      10.13875225
W       11.26590250       0.00000000      12.39188965
W       13.51908301       1.59322190      12.39188965
W       13.51908301      -0.00000000      14.64501694
W       11.26590250       1.59322190      14.64501694
W       11.26590250      -0.00000000      16.89815510
W        9.01272200       1.59322190      16.89815510
W        9.01272200      -0.00000000      21.09999425
W       11.26590250       1.59322190      21.09999425
W       11.26590250       0.00000000      23.35313241
W        9.01272200       1.59322190      23.35313241
W        9.01272200       0.00000000      25.60625970
W       11.26590250       1.59322190      25.60625970
W       11.26590250       0.00000000      27.85939710
W        9.01272200       1.59322190      27.85939710
W       13.51908301       0.00000000      30.11249170
W       11.26590250       1.59322190      30.11249170
W       11.26590250      -0.00000000      32.36553472
W        9.01272200       1.59322190      32.36553472
W        9.01272200      -0.00000000      34.61853101
W       11.26590250       1.59322190      34.61853101
W       11.26590250      -0.00000000      36.87159345
W        9.01272200       1.59322190      36.87159345
W        9.01272200       3.18644380       1.12655590
W       11.26590250       4.77966570       1.12655590
W       11.26590250       3.18644380       3.37961833
W       13.51908301       4.77966570       3.37961833
W        9.01272200       3.18644380       5.63261462
W       11.26590250       4.77966570       5.63261462
W       11.26590250       3.18644380       7.88565765
W       13.51908301       4.77966570       7.88565765
W        9.01272200       3.18644380      10.13875225
W       11.26590250       4.77966570      10.13875225
W       11.26590250       3.18644380      12.39188965
W       13.51908301       4.77966570      12.39188965
W       13.51908301       3.18644380      14.64501694
W       11.26590250       4.77966570      14.64501694
W       11.26590250       3.18644380      16.89815510
W        9.01272200       4.77966570      16.89815510
W        9.01272200       3.18644380      21.09999425
W       11.26590250       4.77966570      21.09999425
W       11.26590250       3.18644380      23.35313241
W        9.01272200       4.77966570      23.35313241
W        9.01272200       3.18644380      25.60625970
W       11.26590250       4.77966570      25.60625970
W       11.26590250       3.18644380      27.85939710
W        9.01272200       4.77966570      27.85939710
W       13.51908301       3.18644380      30.11249170
W       11.26590250       4.77966570      30.11249170
W       11.26590250       3.18644380      32.36553472
W        9.01272200       4.77966570      32.36553472
W        9.01272200       3.18644380      34.61853101
W       11.26590250       4.77966570      34.61853101
W       11.26590250       3.18644380      36.87159345
W        9.01272200       4.77966570      36.87159345
W        9.01272200       6.37288760       1.12655590
W       11.26590250       7.96610950       1.12655590
W       11.26590250       6.37288760       3.37961833
W       13.51908301       7.96610950       3.37961833
W        9.01272200       6.37288760       5.63261462
W       11.26590250       7.96610950       5.63261462
W       11.26590250       6.37288760       7.88565765
W       13.51908301       7.96610950       7.88565765
W        9.01272200       6.37288760      10.13875225
W       11.26590250       7.96610950      10.13875225
W       11.26590250       6.37288760      12.39188965
W       13.51908301       7.96610950      12.39188965
W       13.51908301       6.37288760      14.64501694
W       11.26590250       7.96610950      14.64501694
W       11.26590250       6.37288760      16.89815510
W        9.01272200       7.96610950      16.89815510
W        9.01272200       6.37288760      21.09999425
W       11.26590250       7.96610950      21.09999425
W       11.26590250       6.37288760      23.35313241
W        9.01272200       7.96610950      23.35313241
W        9.01272200       6.37288760      25.60625970
W       11.26590250       7.96610950      25.60625970
W       11.26590250       6.37288760      27.85939710
W        9.01272200       7.96610950      27.85939710
W       13.51908301       6.37288760      30.11249170
W       11.26590250       7.96610950      30.11249170
W       11.26590250       6.37288760      32.36553472
W        9.01272200       7.96610950      32.36553472
W        9.01272200       6.37288760      34.61853101
W       11.26590250       7.96610950      34.61853101
W       11.26590250       6.37288760      36.87159345
W        9.01272200       7.96610950      36.87159345
288
Lattice="13.519083005276505 3.9762680028551066e-17 -4.0430281816947754e-17 2.832107032207403e-17 9.559331404516637 -2.7421228983415876e-17 -9.765279892702126e-17 -9.449974793418939e-17 38.100713449811806" Properties=species:S:1:pos:R:3 vacuum_gap_Ang=2.051282051282051 frame_index=20 pbc="T T T"
W       -0.00000000       0.00000000       1.12655590
W        2.25318050       1.59322190       1.12655590
W        2.25318050       0.00000000       3.37961833
W        4.50636100       1.59322190       3.37961833
W       -0.00000000       0.00000000       5.63261462
W        2.25318050       1.59322190       5.63261462
W        2.25318050      -0.00000000       7.88565765
W        4.50636100       1.59322190       7.88565765
W       -0.00000000       0.00000000      10.13875225
W        2.25318050       1.59322190      10.13875225
W        2.25318050      -0.00000000      12.39188965
W        4.50636100       1.59322190      12.39188965
W        4.50636100      -0.00000000      14.64501694
W        2.25318050       1.59322190      14.64501694
W        2.25318050       0.00000000      16.89815510
W       -0.00000000       1.59322190      16.89815510
W       -0.00000000       0.00000000      21.20255835
W        2.25318050       1.59322190      21.20255835
W        2.25318050      -0.00000000      23.45569651
W       -0.00000000       1.59322190      23.45569651
W       -0.00000000      -0.00000000      25.70882380
W        2.25318050       1.59322190      25.70882380
W        2.25318050       0.00000000      27.96196120
W       -0.00000000       1.59322190      27.96196120
W        4.50636100      -0.00000000      30.21505580
W        2.25318050       1.59322190      30.21505580
W        2.25318050      -0.00000000      32.46809883
W       -0.00000000       1.59322190      32.46809883
W       -0.00000000      -0.00000000      34.72109512
W        2.25318050       1.59322190      34.72109512
W        2.25318050       0.00000000      36.97415755
W       -0.00000000       1.59322190      36.97415755
W       -0.00000000       3.18644380       1.12655590
W        2.25318050       4.77966570       1.12655590
W        2.25318050       3.18644380       3.37961833
W        4.50636100       4.77966570       3.37961833
W       -0.00000000       3.18644380       5.63261462
W        2.25318050       4.77966570       5.63261462
W        2.25318050       3.18644380       7.88565765
W        4.50636100       4.77966570       7.88565765
W       -0.00000000       3.18644380      10.13875225
W        2.25318050       4.77966570      10.13875225
W        2.25318050       3.18644380      12.39188965
W        4.50636100       4.77966570      12.39188965
W        4.50636100       3.18644380      14.64501694
W        2.25318050       4.77966570      14.64501694
W        2.25318050       3.18644380      16.89815510
W       -0.00000000       4.77966570      16.89815510
W       -0.00000000       3.18644380      21.20255835
W        2.25318050       4.77966570      21.20255835
W        2.25318050       3.18644380      23.45569651
W       -0.00000000       4.77966570      23.45569651
W       -0.00000000       3.18644380      25.70882380
W        2.25318050       4.77966570      25.70882380
W        2.25318050       3.18644380      27.96196120
W       -0.00000000       4.77966570      27.96196120
W        4.50636100       3.18644380      30.21505580
W        2.25318050       4.77966570      30.21505580
W        2.25318050       3.18644380      32.46809883
W       -0.00000000       4.77966570      32.46809883
W       -0.00000000       3.18644380      34.72109512
W        2.25318050       4.77966570      34.72109512
W        2.25318050       3.18644380      36.97415755
W       -0.00000000       4.77966570      36.97415755
W       -0.00000000       6.37288760       1.12655590
W        2.25318050       7.96610950       1.12655590
W        2.25318050       6.37288760       3.37961833
W        4.50636100       7.96610950       3.37961833
W       -0.00000000       6.37288760       5.63261462
W        2.25318050       7.96610950       5.63261462
W        2.25318050       6.37288760       7.88565765
W        4.50636100       7.96610950       7.88565765
W        0.00000000       6.37288760      10.13875225
W        2.25318050       7.96610950      10.13875225
W        2.25318050       6.37288760      12.39188965
W        4.50636100       7.96610950      12.39188965
W        4.50636100       6.37288760      14.64501694
W        2.25318050       7.96610950      14.64501694
W        2.25318050       6.37288760      16.89815510
W       -0.00000000       7.96610950      16.89815510
W       -0.00000000       6.37288760      21.20255835
W        2.25318050       7.96610950      21.20255835
W        2.25318050       6.37288760      23.45569651
W       -0.00000000       7.96610950      23.45569651
W       -0.00000000       6.37288760      25.70882380
W        2.25318050       7.96610950      25.70882380
W        2.25318050       6.37288760      27.96196120
W       -0.00000000       7.96610950      27.96196120
W        4.50636100       6.37288760      30.21505580
W        2.25318050       7.96610950      30.21505580
W        2.25318050       6.37288760      32.46809883
W       -0.00000000       7.96610950      32.46809883
W       -0.00000000       6.37288760      34.72109512
W        2.25318050       7.96610950      34.72109512
W        2.25318050       6.37288760      36.97415755
W       -0.00000000       7.96610950      36.97415755
W        4.50636100      -0.00000000       1.12655590
W        6.75954150       1.59322190       1.12655590
W        6.75954150       0.00000000       3.37961833
W        9.01272200       1.59322190       3.37961833
W        4.50636100       0.00000000       5.63261462
W        6.75954150       1.59322190       5.63261462
W        6.75954150      -0.00000000       7.88565765
W        9.01272200       1.59322190       7.88565765
W        4.50636100      -0.00000000      10.13875225
W        6.75954150       1.59322190      10.13875225
W        6.75954150       0.00000000      12.39188965
W        9.01272200       1.59322190      12.39188965
W        9.01272200      -0.00000000      14.64501694
W        6.75954150       1.59322190      14.64501694
W        6.75954150       0.00000000      16.89815510
W        4.50636100       1.59322190      16.89815510
W        4.50636100      -0.00000000      21.20255835
W        6.75954150       1.59322190      21.20255835
W        6.75954150      -0.00000000      23.45569651
W        4.50636100       1.59322190      23.45569651
W        4.50636100       0.00000000      25.70882380
W        6.75954150       1.59322190      25.70882380
W        6.75954150       0.00000000      27.96196120
W        4.50636100       1.59322190      27.96196120
W        9.01272200      -0.00000000      30.21505580
W        6.75954150       1.59322190      30.21505580
W        6.75954150      -0.00000000      32.46809883
W        4.50636100       1.59322190      32.46809883
W        4.50636100       0.00000000      34.72109512
W        6.75954150       1.59322190      34.72109512
W        6.75954150      -0.00000000      36.97415755
W        4.50636100       1.59322190      36.97415755
W        4.50636100       3.18644380       1.12655590
W        6.75954150       4.77966570       1.12655590
W        6.75954150       3.18644380       3.37961833
W        9.01272200       4.77966570       3.37961833
W        4.50636100       3.18644380       5.63261462
W        6.75954150       4.77966570       5.63261462
W        6.75954150       3.18644380       7.88565765
W        9.01272200       4.77966570       7.88565765
W        4.50636100       3.18644380      10.13875225
W        6.75954150       4.77966570      10.13875225
W        6.75954150       3.18644380      12.39188965
W        9.01272200       4.77966570      12.39188965
W        9.01272200       3.18644380      14.64501694
W        6.75954150       4.77966570      14.64501694
W        6.75954150       3.18644380      16.89815510
W        4.50636100       4.77966570      16.89815510
W        4.50636100       3.18644380      21.20255835
W        6.75954150       4.77966570      21.20255835
W        6.75954150       3.18644380      23.45569651
W        4.50636100       4.77966570      23.45569651
W        4.50636100       3.18644380      25.70882380
W        6.75954150       4.77966570      25.70882380
W        6.75954150       3.18644380      27.96196120
W        4.50636100       4.77966570      27.96196120
W        9.01272200       3.18644380      30.21505580
W        6.75954150       4.77966570      30.21505580
W        6.75954150       3.18644380      32.46809883
W        4.50636100       4.77966570      32.46809883
W        4.50636100       3.18644380      34.72109512
W        6.75954150       4.77966570      34.72109512
W        6.75954150       3.18644380      36.97415755
W        4.50636100       4.77966570      36.97415755
W        4.50636100       6.37288760       1.12655590
W        6.75954150       7.96610950       1.12655590
W        6.75954150       6.37288760       3.37961833
W        9.01272200       7.96610950       3.37961833
W        4.50636100       6.37288760       5.63261462
W        6.75954150       7.96610950       5.63261462
W        6.75954150       6.37288760       7.88565765
W        9.01272200       7.96610950       7.88565765
W        4.50636100       6.37288760      10.13875225
W        6.75954150       7.96610950      10.13875225
W        6.75954150       6.37288760      12.39188965
W        9.01272200       7.96610950      12.39188965
W        9.01272200       6.37288760      14.64501694
W        6.75954150       7.96610950      14.64501694
W        6.75954150       6.37288760      16.89815510
W        4.50636100       7.96610950      16.89815510
W        4.50636100       6.37288760      21.20255835
W        6.75954150       7.96610950      21.20255835
W        6.75954150       6.37288760      23.45569651
W        4.50636100       7.96610950      23.45569651
W        4.50636100       6.37288760      25.70882380
W        6.75954150       7.96610950      25.70882380
W        6.75954150       6.37288760      27.96196120
W        4.50636100       7.96610950      27.96196120
W        9.01272200       6.37288760      30.21505580
W        6.75954150       7.96610950      30.21505580
W        6.75954150       6.37288760      32.46809883
W        4.50636100       7.96610950      32.46809883
W        4.50636100       6.37288760      34.72109512
W        6.75954150       7.96610950      34.72109512
W        6.75954150       6.37288760      36.97415755
W        4.50636100       7.96610950      36.97415755
W        9.01272200      -0.00000000       1.12655590
W       11.26590250       1.59322190       1.12655590
W       11.26590250       0.00000000       3.37961833
W       13.51908301       1.59322190       3.37961833
W        9.01272200      -0.00000000       5.63261462
W       11.26590250       1.59322190       5.63261462
W       11.26590250      -0.00000000       7.88565765
W       13.51908301       1.59322190       7.88565765
W        9.01272200      -0.00000000      10.13875225
W       11.26590250       1.59322190      10.13875225
W       11.26590250       0.00000000      12.39188965
W       13.51908301       1.59322190      12.39188965
W       13.51908301      -0.00000000      14.64501694
W       11.26590250       1.59322190      14.64501694
W       11.26590250      -0.00000000      16.89815510
W        9.01272200       1.59322190      16.89815510
W        9.01272200      -0.00000000      21.20255835
W       11.26590250       1.59322190      21.20255835
W       11.26590250       0.00000000      23.45569651
W        9.01272200       1.59322190      23.45569651
W        9.01272200       0.00000000      25.70882380
W       11.26590250       1.59322190      25.70882380
W       11.26590250       0.00000000      27.96196120
W        9.01272200       1.59322190      27.96196120
W       13.51908301       0.00000000      30.21505580
W       11.26590250       1.59322190      30.21505580
W       11.26590250      -0.00000000      32.46809883
W        9.01272200       1.59322190      32.46809883
W        9.01272200      -0.00000000      34.72109512
W       11.26590250       1.59322190      34.72109512
W       11.26590250      -0.00000000      36.97415755
W        9.01272200       1.59322190      36.97415755
W        9.01272200       3.18644380       1.12655590
W       11.26590250       4.77966570       1.12655590
W       11.26590250       3.18644380       3.37961833
W       13.51908301       4.77966570       3.37961833
W        9.01272200       3.18644380       5.63261462
W       11.26590250       4.77966570       5.63261462
W       11.26590250       3.18644380       7.88565765
W       13.51908301       4.77966570       7.88565765
W        9.01272200       3.18644380      10.13875225
W       11.26590250       4.77966570      10.13875225
W       11.26590250       3.18644380      12.39188965
W       13.51908301       4.77966570      12.39188965
W       13.51908301       3.18644380      14.64501694
W       11.26590250       4.77966570      14.64501694
W       11.26590250       3.18644380      16.89815510
W        9.01272200       4.77966570      16.89815510
W        9.01272200       3.18644380      21.20255835
W       11.26590250       4.77966570      21.20255835
W       11.26590250       3.18644380      23.45569651
W        9.01272200       4.77966570      23.45569651
W        9.01272200       3.18644380      25.70882380
W       11.26590250       4.77966570      25.70882380
W       11.26590250       3.18644380      27.96196120
W        9.01272200       4.77966570      27.96196120
W       13.51908301       3.18644380      30.21505580
W       11.26590250       4.77966570      30.21505580
W       11.26590250       3.18644380      32.46809883
W        9.01272200       4.77966570      32.46809883
W        9.01272200       3.18644380      34.72109512
W       11.26590250       4.77966570      34.72109512
W       11.26590250       3.18644380      36.97415755
W        9.01272200       4.77966570      36.97415755
W        9.01272200       6.37288760       1.12655590
W       11.26590250       7.96610950       1.12655590
W       11.26590250       6.37288760       3.37961833
W       13.51908301       7.96610950       3.37961833
W        9.01272200       6.37288760       5.63261462
W       11.26590250       7.96610950       5.63261462
W       11.26590250       6.37288760       7.88565765
W       13.51908301       7.96610950       7.88565765
W        9.01272200       6.37288760      10.13875225
W       11.26590250       7.96610950      10.13875225
W       11.26590250       6.37288760      12.39188965
W       13.51908301       7.96610950      12.39188965
W       13.51908301       6.37288760      14.64501694
W       11.26590250       7.96610950      14.64501694
W       11.26590250       6.37288760      16.89815510
W        9.01272200       7.96610950      16.89815510
W        9.01272200       6.37288760      21.20255835
W       11.26590250       7.96610950      21.20255835
W       11.26590250       6.37288760      23.45569651
W        9.01272200       7.96610950      23.45569651
W        9.01272200       6.37288760      25.70882380
W       11.26590250       7.96610950      25.70882380
W       11.26590250       6.37288760      27.96196120
W        9.01272200       7.96610950      27.96196120
W       13.51908301       6.37288760      30.21505580
W       11.26590250       7.96610950      30.21505580
W       11.26590250       6.37288760      32.46809883
W        9.01272200       7.96610950      32.46809883
W        9.01272200       6.37288760      34.72109512
W       11.26590250       7.96610950      34.72109512
W       11.26590250       6.37288760      36.97415755
W        9.01272200       7.96610950      36.97415755
288
Lattice="13.519083005276505 3.9762680028551066e-17 -4.0430281816947754e-17 2.832107032207403e-17 9.559331404516637 -2.7421228983415876e-17 -9.765279892702126e-17 -9.449974793418939e-17 38.20327755237591" Properties=species:S:1:pos:R:3 vacuum_gap_Ang=2.1538461538461537 frame_index=21 pbc="T T T"
W       -0.00000000       0.00000000       1.12655590
W        2.25318050       1.59322190       1.12655590
W        2.25318050       0.00000000       3.37961833
W        4.50636100       1.59322190       3.37961833
W       -0.00000000       0.00000000       5.63261462
W        2.25318050       1.59322190       5.63261462
W        2.25318050      -0.00000000       7.88565765
W        4.50636100       1.59322190       7.88565765
W       -0.00000000       0.00000000      10.13875225
W        2.25318050       1.59322190      10.13875225
W        2.25318050      -0.00000000      12.39188965
W        4.50636100       1.59322190      12.39188965
W        4.50636100      -0.00000000      14.64501694
W        2.25318050       1.59322190      14.64501694
W        2.25318050       0.00000000      16.89815510
W       -0.00000000       1.59322190      16.89815510
W       -0.00000000       0.00000000      21.30512246
W        2.25318050       1.59322190      21.30512246
W        2.25318050      -0.00000000      23.55826061
W       -0.00000000       1.59322190      23.55826061
W       -0.00000000      -0.00000000      25.81138790
W        2.25318050       1.59322190      25.81138790
W        2.25318050       0.00000000      28.06452530
W       -0.00000000       1.59322190      28.06452530
W        4.50636100      -0.00000000      30.31761990
W        2.25318050       1.59322190      30.31761990
W        2.25318050      -0.00000000      32.57066293
W       -0.00000000       1.59322190      32.57066293
W       -0.00000000      -0.00000000      34.82365922
W        2.25318050       1.59322190      34.82365922
W        2.25318050       0.00000000      37.07672166
W       -0.00000000       1.59322190      37.07672166
W       -0.00000000       3.18644380       1.12655590
W        2.25318050       4.77966570       1.12655590
W        2.25318050       3.18644380       3.37961833
W        4.50636100       4.77966570       3.37961833
W       -0.00000000       3.18644380       5.63261462
W        2.25318050       4.77966570       5.63261462
W        2.25318050       3.18644380       7.88565765
W        4.50636100       4.77966570       7.88565765
W       -0.00000000       3.18644380      10.13875225
W        2.25318050       4.77966570      10.13875225
W        2.25318050       3.18644380      12.39188965
W        4.50636100       4.77966570      12.39188965
W        4.50636100       3.18644380      14.64501694
W        2.25318050       4.77966570      14.64501694
W        2.25318050       3.18644380      16.89815510
W       -0.00000000       4.77966570      16.89815510
W       -0.00000000       3.18644380      21.30512246
W        2.25318050       4.77966570      21.30512246
W        2.25318050       3.18644380      23.55826061
W       -0.00000000       4.77966570      23.55826061
W       -0.00000000       3.18644380      25.81138790
W        2.25318050       4.77966570      25.81138790
W        2.25318050       3.18644380      28.06452530
W       -0.00000000       4.77966570      28.06452530
W        4.50636100       3.18644380      30.31761990
W        2.25318050       4.77966570      30.31761990
W        2.25318050       3.18644380      32.57066293
W       -0.00000000       4.77966570      32.57066293
W       -0.00000000       3.18644380      34.82365922
W        2.25318050       4.77966570      34.82365922
W        2.25318050       3.18644380      37.07672166
W       -0.00000000       4.77966570      37.07672166
W       -0.00000000       6.37288760       1.12655590
W        2.25318050       7.96610950       1.12655590
W        2.25318050       6.37288760       3.37961833
W        4.50636100       7.96610950       3.37961833
W       -0.00000000       6.37288760       5.63261462
W        2.25318050       7.96610950       5.63261462
W        2.25318050       6.37288760       7.88565765
W        4.50636100       7.96610950       7.88565765
W        0.00000000       6.37288760      10.13875225
W        2.25318050       7.96610950      10.13875225
W        2.25318050       6.37288760      12.39188965
W        4.50636100       7.96610950      12.39188965
W        4.50636100       6.37288760      14.64501694
W        2.25318050       7.96610950      14.64501694
W        2.25318050       6.37288760      16.89815510
W       -0.00000000       7.96610950      16.89815510
W       -0.00000000       6.37288760      21.30512246
W        2.25318050       7.96610950      21.30512246
W        2.25318050       6.37288760      23.55826061
W       -0.00000000       7.96610950      23.55826061
W       -0.00000000       6.37288760      25.81138790
W        2.25318050       7.96610950      25.81138790
W        2.25318050       6.37288760      28.06452530
W       -0.00000000       7.96610950      28.06452530
W        4.50636100       6.37288760      30.31761990
W        2.25318050       7.96610950      30.31761990
W        2.25318050       6.37288760      32.57066293
W       -0.00000000       7.96610950      32.57066293
W       -0.00000000       6.37288760      34.82365922
W        2.25318050       7.96610950      34.82365922
W        2.25318050       6.37288760      37.07672166
W       -0.00000000       7.96610950      37.07672166
W        4.50636100      -0.00000000       1.12655590
W        6.75954150       1.59322190       1.12655590
W        6.75954150       0.00000000       3.37961833
W        9.01272200       1.59322190       3.37961833
W        4.50636100       0.00000000       5.63261462
W        6.75954150       1.59322190       5.63261462
W        6.75954150      -0.00000000       7.88565765
W        9.01272200       1.59322190       7.88565765
W        4.50636100      -0.00000000      10.13875225
W        6.75954150       1.59322190      10.13875225
W        6.75954150       0.00000000      12.39188965
W        9.01272200       1.59322190      12.39188965
W        9.01272200      -0.00000000      14.64501694
W        6.75954150       1.59322190      14.64501694
W        6.75954150       0.00000000      16.89815510
W        4.50636100       1.59322190      16.89815510
W        4.50636100      -0.00000000      21.30512246
W        6.75954150       1.59322190      21.30512246
W        6.75954150      -0.00000000      23.55826061
W        4.50636100       1.59322190      23.55826061
W        4.50636100       0.00000000      25.81138790
W        6.75954150       1.59322190      25.81138790
W        6.75954150       0.00000000      28.06452530
W        4.50636100       1.59322190      28.06452530
W        9.01272200      -0.00000000      30.31761990
W        6.75954150       1.59322190      30.31761990
W        6.75954150      -0.00000000      32.57066293
W        4.50636100       1.59322190      32.57066293
W        4.50636100       0.00000000      34.82365922
W        6.75954150       1.59322190      34.82365922
W        6.75954150      -0.00000000      37.07672166
W        4.50636100       1.59322190      37.07672166
W        4.50636100       3.18644380       1.12655590
W        6.75954150       4.77966570       1.12655590
W        6.75954150       3.18644380       3.37961833
W        9.01272200       4.77966570       3.37961833
W        4.50636100       3.18644380       5.63261462
W        6.75954150       4.77966570       5.63261462
W        6.75954150       3.18644380       7.88565765
W        9.01272200       4.77966570       7.88565765
W        4.50636100       3.18644380      10.13875225
W        6.75954150       4.77966570      10.13875225
W        6.75954150       3.18644380      12.39188965
W        9.01272200       4.77966570      12.39188965
W        9.01272200       3.18644380      14.64501694
W        6.75954150       4.77966570      14.64501694
W        6.75954150       3.18644380      16.89815510
W        4.50636100       4.77966570      16.89815510
W        4.50636100       3.18644380      21.30512246
W        6.75954150       4.77966570      21.30512246
W        6.75954150       3.18644380      23.55826061
W        4.50636100       4.77966570      23.55826061
W        4.50636100       3.18644380      25.81138790
W        6.75954150       4.77966570      25.81138790
W        6.75954150       3.18644380      28.06452530
W        4.50636100       4.77966570      28.06452530
W        9.01272200       3.18644380      30.31761990
W        6.75954150       4.77966570      30.31761990
W        6.75954150       3.18644380      32.57066293
W        4.50636100       4.77966570      32.57066293
W        4.50636100       3.18644380      34.82365922
W        6.75954150       4.77966570      34.82365922
W        6.75954150       3.18644380      37.07672166
W        4.50636100       4.77966570      37.07672166
W        4.50636100       6.37288760       1.12655590
W        6.75954150       7.96610950       1.12655590
W        6.75954150       6.37288760       3.37961833
W        9.01272200       7.96610950       3.37961833
W        4.50636100       6.37288760       5.63261462
W        6.75954150       7.96610950       5.63261462
W        6.75954150       6.37288760       7.88565765
W        9.01272200       7.96610950       7.88565765
W        4.50636100       6.37288760      10.13875225
W        6.75954150       7.96610950      10.13875225
W        6.75954150       6.37288760      12.39188965
W        9.01272200       7.96610950      12.39188965
W        9.01272200       6.37288760      14.64501694
W        6.75954150       7.96610950      14.64501694
W        6.75954150       6.37288760      16.89815510
W        4.50636100       7.96610950      16.89815510
W        4.50636100       6.37288760      21.30512246
W        6.75954150       7.96610950      21.30512246
W        6.75954150       6.37288760      23.55826061
W        4.50636100       7.96610950      23.55826061
W        4.50636100       6.37288760      25.81138790
W        6.75954150       7.96610950      25.81138790
W        6.75954150       6.37288760      28.06452530
W        4.50636100       7.96610950      28.06452530
W        9.01272200       6.37288760      30.31761990
W        6.75954150       7.96610950      30.31761990
W        6.75954150       6.37288760      32.57066293
W        4.50636100       7.96610950      32.57066293
W        4.50636100       6.37288760      34.82365922
W        6.75954150       7.96610950      34.82365922
W        6.75954150       6.37288760      37.07672166
W        4.50636100       7.96610950      37.07672166
W        9.01272200      -0.00000000       1.12655590
W       11.26590250       1.59322190       1.12655590
W       11.26590250       0.00000000       3.37961833
W       13.51908301       1.59322190       3.37961833
W        9.01272200      -0.00000000       5.63261462
W       11.26590250       1.59322190       5.63261462
W       11.26590250      -0.00000000       7.88565765
W       13.51908301       1.59322190       7.88565765
W        9.01272200      -0.00000000      10.13875225
W       11.26590250       1.59322190      10.13875225
W       11.26590250       0.00000000      12.39188965
W       13.51908301       1.59322190      12.39188965
W       13.51908301      -0.00000000      14.64501694
W       11.26590250       1.59322190      14.64501694
W       11.26590250      -0.00000000      16.89815510
W        9.01272200       1.59322190      16.89815510
W        9.01272200      -0.00000000      21.30512246
W       11.26590250       1.59322190      21.30512246
W       11.26590250       0.00000000      23.55826061
W        9.01272200       1.59322190      23.55826061
W        9.01272200       0.00000000      25.81138790
W       11.26590250       1.59322190      25.81138790
W       11.26590250       0.00000000      28.06452530
W        9.01272200       1.59322190      28.06452530
W       13.51908301       0.00000000      30.31761990
W       11.26590250       1.59322190      30.31761990
W       11.26590250      -0.00000000      32.57066293
W        9.01272200       1.59322190      32.57066293
W        9.01272200      -0.00000000      34.82365922
W       11.26590250       1.59322190      34.82365922
W       11.26590250      -0.00000000      37.07672166
W        9.01272200       1.59322190      37.07672166
W        9.01272200       3.18644380       1.12655590
W       11.26590250       4.77966570       1.12655590
W       11.26590250       3.18644380       3.37961833
W       13.51908301       4.77966570       3.37961833
W        9.01272200       3.18644380       5.63261462
W       11.26590250       4.77966570       5.63261462
W       11.26590250       3.18644380       7.88565765
W       13.51908301       4.77966570       7.88565765
W        9.01272200       3.18644380      10.13875225
W       11.26590250       4.77966570      10.13875225
W       11.26590250       3.18644380      12.39188965
W       13.51908301       4.77966570      12.39188965
W       13.51908301       3.18644380      14.64501694
W       11.26590250       4.77966570      14.64501694
W       11.26590250       3.18644380      16.89815510
W        9.01272200       4.77966570      16.89815510
W        9.01272200       3.18644380      21.30512246
W       11.26590250       4.77966570      21.30512246
W       11.26590250       3.18644380      23.55826061
W        9.01272200       4.77966570      23.55826061
W        9.01272200       3.18644380      25.81138790
W       11.26590250       4.77966570      25.81138790
W       11.26590250       3.18644380      28.06452530
W        9.01272200       4.77966570      28.06452530
W       13.51908301       3.18644380      30.31761990
W       11.26590250       4.77966570      30.31761990
W       11.26590250       3.18644380      32.57066293
W        9.01272200       4.77966570      32.57066293
W        9.01272200       3.18644380      34.82365922
W       11.26590250       4.77966570      34.82365922
W       11.26590250       3.18644380      37.07672166
W        9.01272200       4.77966570      37.07672166
W        9.01272200       6.37288760       1.12655590
W       11.26590250       7.96610950       1.12655590
W       11.26590250       6.37288760       3.37961833
W       13.51908301       7.96610950       3.37961833
W        9.01272200       6.37288760       5.63261462
W       11.26590250       7.96610950       5.63261462
W       11.26590250       6.37288760       7.88565765
W       13.51908301       7.96610950       7.88565765
W        9.01272200       6.37288760      10.13875225
W       11.26590250       7.96610950      10.13875225
W       11.26590250       6.37288760      12.39188965
W       13.51908301       7.96610950      12.39188965
W       13.51908301       6.37288760      14.64501694
W       11.26590250       7.96610950      14.64501694
W       11.26590250       6.37288760      16.89815510
W        9.01272200       7.96610950      16.89815510
W        9.01272200       6.37288760      21.30512246
W       11.26590250       7.96610950      21.30512246
W       11.26590250       6.37288760      23.55826061
W        9.01272200       7.96610950      23.55826061
W        9.01272200       6.37288760      25.81138790
W       11.26590250       7.96610950      25.81138790
W       11.26590250       6.37288760      28.06452530
W        9.01272200       7.96610950      28.06452530
W       13.51908301       6.37288760      30.31761990
W       11.26590250       7.96610950      30.31761990
W       11.26590250       6.37288760      32.57066293
W        9.01272200       7.96610950      32.57066293
W        9.01272200       6.37288760      34.82365922
W       11.26590250       7.96610950      34.82365922
W       11.26590250       6.37288760      37.07672166
W        9.01272200       7.96610950      37.07672166
288
Lattice="13.519083005276505 3.9762680028551066e-17 -4.0430281816947754e-17 2.832107032207403e-17 9.559331404516637 -2.7421228983415876e-17 -9.765279892702126e-17 -9.449974793418939e-17 38.30584165494001" Properties=species:S:1:pos:R:3 vacuum_gap_Ang=2.2564102564102564 frame_index=22 pbc="T T T"
W       -0.00000000       0.00000000       1.12655590
W        2.25318050       1.59322190       1.12655590
W        2.25318050       0.00000000       3.37961833
W        4.50636100       1.59322190       3.37961833
W       -0.00000000       0.00000000       5.63261462
W        2.25318050       1.59322190       5.63261462
W        2.25318050      -0.00000000       7.88565765
W        4.50636100       1.59322190       7.88565765
W       -0.00000000       0.00000000      10.13875225
W        2.25318050       1.59322190      10.13875225
W        2.25318050      -0.00000000      12.39188965
W        4.50636100       1.59322190      12.39188965
W        4.50636100      -0.00000000      14.64501694
W        2.25318050       1.59322190      14.64501694
W        2.25318050       0.00000000      16.89815510
W       -0.00000000       1.59322190      16.89815510
W       -0.00000000       0.00000000      21.40768656
W        2.25318050       1.59322190      21.40768656
W        2.25318050      -0.00000000      23.66082471
W       -0.00000000       1.59322190      23.66082471
W       -0.00000000      -0.00000000      25.91395201
W        2.25318050       1.59322190      25.91395201
W        2.25318050       0.00000000      28.16708940
W       -0.00000000       1.59322190      28.16708940
W        4.50636100      -0.00000000      30.42018400
W        2.25318050       1.59322190      30.42018400
W        2.25318050      -0.00000000      32.67322703
W       -0.00000000       1.59322190      32.67322703
W       -0.00000000      -0.00000000      34.92622332
W        2.25318050       1.59322190      34.92622332
W        2.25318050       0.00000000      37.17928576
W       -0.00000000       1.59322190      37.17928576
W       -0.00000000       3.18644380       1.12655590
W        2.25318050       4.77966570       1.12655590
W        2.25318050       3.18644380       3.37961833
W        4.50636100       4.77966570       3.37961833
W       -0.00000000       3.18644380       5.63261462
W        2.25318050       4.77966570       5.63261462
W        2.25318050       3.18644380       7.88565765
W        4.50636100       4.77966570       7.88565765
W       -0.00000000       3.18644380      10.13875225
W        2.25318050       4.77966570      10.13875225
W        2.25318050       3.18644380      12.39188965
W        4.50636100       4.77966570      12.39188965
W        4.50636100       3.18644380      14.64501694
W        2.25318050       4.77966570      14.64501694
W        2.25318050       3.18644380      16.89815510
W       -0.00000000       4.77966570      16.89815510
W       -0.00000000       3.18644380      21.40768656
W        2.25318050       4.77966570      21.40768656
W        2.25318050       3.18644380      23.66082471
W       -0.00000000       4.77966570      23.66082471
W       -0.00000000       3.18644380      25.91395201
W        2.25318050       4.77966570      25.91395201
W        2.25318050       3.18644380      28.16708940
W       -0.00000000       4.77966570      28.16708940
W        4.50636100       3.18644380      30.42018400
W        2.25318050       4.77966570      30.42018400
W        2.25318050       3.18644380      32.67322703
W       -0.00000000       4.77966570      32.67322703
W       -0.00000000       3.18644380      34.92622332
W        2.25318050       4.77966570      34.92622332
W        2.25318050       3.18644380      37.17928576
W       -0.00000000       4.77966570      37.17928576
W       -0.00000000       6.37288760       1.12655590
W        2.25318050       7.96610950       1.12655590
W        2.25318050       6.37288760       3.37961833
W        4.50636100       7.96610950       3.37961833
W       -0.00000000       6.37288760       5.63261462
W        2.25318050       7.96610950       5.63261462
W        2.25318050       6.37288760       7.88565765
W        4.50636100       7.96610950       7.88565765
W        0.00000000       6.37288760      10.13875225
W        2.25318050       7.96610950      10.13875225
W        2.25318050       6.37288760      12.39188965
W        4.50636100       7.96610950      12.39188965
W        4.50636100       6.37288760      14.64501694
W        2.25318050       7.96610950      14.64501694
W        2.25318050       6.37288760      16.89815510
W       -0.00000000       7.96610950      16.89815510
W       -0.00000000       6.37288760      21.40768656
W        2.25318050       7.96610950      21.40768656
W        2.25318050       6.37288760      23.66082471
W       -0.00000000       7.96610950      23.66082471
W       -0.00000000       6.37288760      25.91395201
W        2.25318050       7.96610950      25.91395201
W        2.25318050       6.37288760      28.16708940
W       -0.00000000       7.96610950      28.16708940
W        4.50636100       6.37288760      30.42018400
W        2.25318050       7.96610950      30.42018400
W        2.25318050       6.37288760      32.67322703
W       -0.00000000       7.96610950      32.67322703
W       -0.00000000       6.37288760      34.92622332
W        2.25318050       7.96610950      34.92622332
W        2.25318050       6.37288760      37.17928576
W       -0.00000000       7.96610950      37.17928576
W        4.50636100      -0.00000000       1.12655590
W        6.75954150       1.59322190       1.12655590
W        6.75954150       0.00000000       3.37961833
W        9.01272200       1.59322190       3.37961833
W        4.50636100       0.00000000       5.63261462
W        6.75954150       1.59322190       5.63261462
W        6.75954150      -0.00000000       7.88565765
W        9.01272200       1.59322190       7.88565765
W        4.50636100      -0.00000000      10.13875225
W        6.75954150       1.59322190      10.13875225
W        6.75954150       0.00000000      12.39188965
W        9.01272200       1.59322190      12.39188965
W        9.01272200      -0.00000000      14.64501694
W        6.75954150       1.59322190      14.64501694
W        6.75954150       0.00000000      16.89815510
W        4.50636100       1.59322190      16.89815510
W        4.50636100      -0.00000000      21.40768656
W        6.75954150       1.59322190      21.40768656
W        6.75954150      -0.00000000      23.66082471
W        4.50636100       1.59322190      23.66082471
W        4.50636100       0.00000000      25.91395201
W        6.75954150       1.59322190      25.91395201
W        6.75954150       0.00000000      28.16708940
W        4.50636100       1.59322190      28.16708940
W        9.01272200      -0.00000000      30.42018400
W        6.75954150       1.59322190      30.42018400
W        6.75954150      -0.00000000      32.67322703
W        4.50636100       1.59322190      32.67322703
W        4.50636100       0.00000000      34.92622332
W        6.75954150       1.59322190      34.92622332
W        6.75954150      -0.00000000      37.17928576
W        4.50636100       1.59322190      37.17928576
W        4.50636100       3.18644380       1.12655590
W        6.75954150       4.77966570       1.12655590
W        6.75954150       3.18644380       3.37961833
W        9.01272200       4.77966570       3.37961833
W        4.50636100       3.18644380       5.63261462
W        6.75954150       4.77966570       5.63261462
W        6.75954150       3.18644380       7.88565765
W        9.01272200       4.77966570       7.88565765
W        4.50636100       3.18644380      10.13875225
W        6.75954150       4.77966570      10.13875225
W        6.75954150       3.18644380      12.39188965
W        9.01272200       4.77966570      12.39188965
W        9.01272200       3.18644380      14.64501694
W        6.75954150       4.77966570      14.64501694
W        6.75954150       3.18644380      16.89815510
W        4.50636100       4.77966570      16.89815510
W        4.50636100       3.18644380      21.40768656
W        6.75954150       4.77966570      21.40768656
W        6.75954150       3.18644380      23.66082471
W        4.50636100       4.77966570      23.66082471
W        4.50636100       3.18644380      25.91395201
W        6.75954150       4.77966570      25.91395201
W        6.75954150       3.18644380      28.16708940
W        4.50636100       4.77966570      28.16708940
W        9.01272200       3.18644380      30.42018400
W        6.75954150       4.77966570      30.42018400
W        6.75954150       3.18644380      32.67322703
W        4.50636100       4.77966570      32.67322703
W        4.50636100       3.18644380      34.92622332
W        6.75954150       4.77966570      34.92622332
W        6.75954150       3.18644380      37.17928576
W        4.50636100       4.77966570      37.17928576
W        4.50636100       6.37288760       1.12655590
W        6.75954150       7.96610950       1.12655590
W        6.75954150       6.37288760       3.37961833
W        9.01272200       7.96610950       3.37961833
W        4.50636100       6.37288760       5.63261462
W        6.75954150       7.96610950       5.63261462
W        6.75954150       6.37288760       7.88565765
W        9.01272200       7.96610950       7.88565765
W        4.50636100       6.37288760      10.13875225
W        6.75954150       7.96610950      10.13875225
W        6.75954150       6.37288760      12.39188965
W        9.01272200       7.96610950      12.39188965
W        9.01272200       6.37288760      14.64501694
W        6.75954150       7.96610950      14.64501694
W        6.75954150       6.37288760      16.89815510
W        4.50636100       7.96610950      16.89815510
W        4.50636100       6.37288760      21.40768656
W        6.75954150       7.96610950      21.40768656
W        6.75954150       6.37288760      23.66082471
W        4.50636100       7.96610950      23.66082471
W        4.50636100       6.37288760      25.91395201
W        6.75954150       7.96610950      25.91395201
W        6.75954150       6.37288760      28.16708940
W        4.50636100       7.96610950      28.16708940
W        9.01272200       6.37288760      30.42018400
W        6.75954150       7.96610950      30.42018400
W        6.75954150       6.37288760      32.67322703
W        4.50636100       7.96610950      32.67322703
W        4.50636100       6.37288760      34.92622332
W        6.75954150       7.96610950      34.92622332
W        6.75954150       6.37288760      37.17928576
W        4.50636100       7.96610950      37.17928576
W        9.01272200      -0.00000000       1.12655590
W       11.26590250       1.59322190       1.12655590
W       11.26590250       0.00000000       3.37961833
W       13.51908301       1.59322190       3.37961833
W        9.01272200      -0.00000000       5.63261462
W       11.26590250       1.59322190       5.63261462
W       11.26590250      -0.00000000       7.88565765
W       13.51908301       1.59322190       7.88565765
W        9.01272200      -0.00000000      10.13875225
W       11.26590250       1.59322190      10.13875225
W       11.26590250       0.00000000      12.39188965
W       13.51908301       1.59322190      12.39188965
W       13.51908301      -0.00000000      14.64501694
W       11.26590250       1.59322190      14.64501694
W       11.26590250      -0.00000000      16.89815510
W        9.01272200       1.59322190      16.89815510
W        9.01272200      -0.00000000      21.40768656
W       11.26590250       1.59322190      21.40768656
W       11.26590250       0.00000000      23.66082471
W        9.01272200       1.59322190      23.66082471
W        9.01272200       0.00000000      25.91395201
W       11.26590250       1.59322190      25.91395201
W       11.26590250       0.00000000      28.16708940
W        9.01272200       1.59322190      28.16708940
W       13.51908301       0.00000000      30.42018400
W       11.26590250       1.59322190      30.42018400
W       11.26590250      -0.00000000      32.67322703
W        9.01272200       1.59322190      32.67322703
W        9.01272200      -0.00000000      34.92622332
W       11.26590250       1.59322190      34.92622332
W       11.26590250      -0.00000000      37.17928576
W        9.01272200       1.59322190      37.17928576
W        9.01272200       3.18644380       1.12655590
W       11.26590250       4.77966570       1.12655590
W       11.26590250       3.18644380       3.37961833
W       13.51908301       4.77966570       3.37961833
W        9.01272200       3.18644380       5.63261462
W       11.26590250       4.77966570       5.63261462
W       11.26590250       3.18644380       7.88565765
W       13.51908301       4.77966570       7.88565765
W        9.01272200       3.18644380      10.13875225
W       11.26590250       4.77966570      10.13875225
W       11.26590250       3.18644380      12.39188965
W       13.51908301       4.77966570      12.39188965
W       13.51908301       3.18644380      14.64501694
W       11.26590250       4.77966570      14.64501694
W       11.26590250       3.18644380      16.89815510
W        9.01272200       4.77966570      16.89815510
W        9.01272200       3.18644380      21.40768656
W       11.26590250       4.77966570      21.40768656
W       11.26590250       3.18644380      23.66082471
W        9.01272200       4.77966570      23.66082471
W        9.01272200       3.18644380      25.91395201
W       11.26590250       4.77966570      25.91395201
W       11.26590250       3.18644380      28.16708940
W        9.01272200       4.77966570      28.16708940
W       13.51908301       3.18644380      30.42018400
W       11.26590250       4.77966570      30.42018400
W       11.26590250       3.18644380      32.67322703
W        9.01272200       4.77966570      32.67322703
W        9.01272200       3.18644380      34.92622332
W       11.26590250       4.77966570      34.92622332
W       11.26590250       3.18644380      37.17928576
W        9.01272200       4.77966570      37.17928576
W        9.01272200       6.37288760       1.12655590
W       11.26590250       7.96610950       1.12655590
W       11.26590250       6.37288760       3.37961833
W       13.51908301       7.96610950       3.37961833
W        9.01272200       6.37288760       5.63261462
W       11.26590250       7.96610950       5.63261462
W       11.26590250       6.37288760       7.88565765
W       13.51908301       7.96610950       7.88565765
W        9.01272200       6.37288760      10.13875225
W       11.26590250       7.96610950      10.13875225
W       11.26590250       6.37288760      12.39188965
W       13.51908301       7.96610950      12.39188965
W       13.51908301       6.37288760      14.64501694
W       11.26590250       7.96610950      14.64501694
W       11.26590250       6.37288760      16.89815510
W        9.01272200       7.96610950      16.89815510
W        9.01272200       6.37288760      21.40768656
W       11.26590250       7.96610950      21.40768656
W       11.26590250       6.37288760      23.66082471
W        9.01272200       7.96610950      23.66082471
W        9.01272200       6.37288760      25.91395201
W       11.26590250       7.96610950      25.91395201
W       11.26590250       6.37288760      28.16708940
W        9.01272200       7.96610950      28.16708940
W       13.51908301       6.37288760      30.42018400
W       11.26590250       7.96610950      30.42018400
W       11.26590250       6.37288760      32.67322703
W        9.01272200       7.96610950      32.67322703
W        9.01272200       6.37288760      34.92622332
W       11.26590250       7.96610950      34.92622332
W       11.26590250       6.37288760      37.17928576
W        9.01272200       7.96610950      37.17928576
288
Lattice="13.519083005276505 3.9762680028551066e-17 -4.0430281816947754e-17 2.832107032207403e-17 9.559331404516637 -2.7421228983415876e-17 -9.765279892702126e-17 -9.449974793418939e-17 38.40840575750411" Properties=species:S:1:pos:R:3 vacuum_gap_Ang=2.358974358974359 frame_index=23 pbc="T T T"
W       -0.00000000       0.00000000       1.12655590
W        2.25318050       1.59322190       1.12655590
W        2.25318050       0.00000000       3.37961833
W        4.50636100       1.59322190       3.37961833
W       -0.00000000       0.00000000       5.63261462
W        2.25318050       1.59322190       5.63261462
W        2.25318050      -0.00000000       7.88565765
W        4.50636100       1.59322190       7.88565765
W       -0.00000000       0.00000000      10.13875225
W        2.25318050       1.59322190      10.13875225
W        2.25318050      -0.00000000      12.39188965
W        4.50636100       1.59322190      12.39188965
W        4.50636100      -0.00000000      14.64501694
W        2.25318050       1.59322190      14.64501694
W        2.25318050       0.00000000      16.89815510
W       -0.00000000       1.59322190      16.89815510
W       -0.00000000       0.00000000      21.51025066
W        2.25318050       1.59322190      21.51025066
W        2.25318050      -0.00000000      23.76338882
W       -0.00000000       1.59322190      23.76338882
W       -0.00000000      -0.00000000      26.01651611
W        2.25318050       1.59322190      26.01651611
W        2.25318050       0.00000000      28.26965351
W       -0.00000000       1.59322190      28.26965351
W        4.50636100      -0.00000000      30.52274811
W        2.25318050       1.59322190      30.52274811
W        2.25318050      -0.00000000      32.77579113
W       -0.00000000       1.59322190      32.77579113
W       -0.00000000      -0.00000000      35.02878742
W        2.25318050       1.59322190      35.02878742
W        2.25318050       0.00000000      37.28184986
W       -0.00000000       1.59322190      37.28184986
W       -0.00000000       3.18644380       1.12655590
W        2.25318050       4.77966570       1.12655590
W        2.25318050       3.18644380       3.37961833
W        4.50636100       4.77966570       3.37961833
W       -0.00000000       3.18644380       5.63261462
W        2.25318050       4.77966570       5.63261462
W        2.25318050       3.18644380       7.88565765
W        4.50636100       4.77966570       7.88565765
W       -0.00000000       3.18644380      10.13875225
W        2.25318050       4.77966570      10.13875225
W        2.25318050       3.18644380      12.39188965
W        4.50636100       4.77966570      12.39188965
W        4.50636100       3.18644380      14.64501694
W        2.25318050       4.77966570      14.64501694
W        2.25318050       3.18644380      16.89815510
W       -0.00000000       4.77966570      16.89815510
W       -0.00000000       3.18644380      21.51025066
W        2.25318050       4.77966570      21.51025066
W        2.25318050       3.18644380      23.76338882
W       -0.00000000       4.77966570      23.76338882
W       -0.00000000       3.18644380      26.01651611
W        2.25318050       4.77966570      26.01651611
W        2.25318050       3.18644380      28.26965351
W       -0.00000000       4.77966570      28.26965351
W        4.50636100       3.18644380      30.52274811
W        2.25318050       4.77966570      30.52274811
W        2.25318050       3.18644380      32.77579113
W       -0.00000000       4.77966570      32.77579113
W       -0.00000000       3.18644380      35.02878742
W        2.25318050       4.77966570      35.02878742
W        2.25318050       3.18644380      37.28184986
W       -0.00000000       4.77966570      37.28184986
W       -0.00000000       6.37288760       1.12655590
W        2.25318050       7.96610950       1.12655590
W        2.25318050       6.37288760       3.37961833
W        4.50636100       7.96610950       3.37961833
W       -0.00000000       6.37288760       5.63261462
W        2.25318050       7.96610950       5.63261462
W        2.25318050       6.37288760       7.88565765
W        4.50636100       7.96610950       7.88565765
W        0.00000000       6.37288760      10.13875225
W        2.25318050       7.96610950      10.13875225
W        2.25318050       6.37288760      12.39188965
W        4.50636100       7.96610950      12.39188965
W        4.50636100       6.37288760      14.64501694
W        2.25318050       7.96610950      14.64501694
W        2.25318050       6.37288760      16.89815510
W       -0.00000000       7.96610950      16.89815510
W       -0.00000000       6.37288760      21.51025066
W        2.25318050       7.96610950      21.51025066
W        2.25318050       6.37288760      23.76338882
W       -0.00000000       7.96610950      23.76338882
W       -0.00000000       6.37288760      26.01651611
W        2.25318050       7.96610950      26.01651611
W        2.25318050       6.37288760      28.26965351
W       -0.00000000       7.96610950      28.26965351
W        4.50636100       6.37288760      30.52274811
W        2.25318050       7.96610950      30.52274811
W        2.25318050       6.37288760      32.77579113
W       -0.00000000       7.96610950      32.77579113
W       -0.00000000       6.37288760      35.02878742
W        2.25318050       7.96610950      35.02878742
W        2.25318050       6.37288760      37.28184986
W       -0.00000000       7.96610950      37.28184986
W        4.50636100      -0.00000000       1.12655590
W        6.75954150       1.59322190       1.12655590
W        6.75954150       0.00000000       3.37961833
W        9.01272200       1.59322190       3.37961833
W        4.50636100       0.00000000       5.63261462
W        6.75954150       1.59322190       5.63261462
W        6.75954150      -0.00000000       7.88565765
W        9.01272200       1.59322190       7.88565765
W        4.50636100      -0.00000000      10.13875225
W        6.75954150       1.59322190      10.13875225
W        6.75954150       0.00000000      12.39188965
W        9.01272200       1.59322190      12.39188965
W        9.01272200      -0.00000000      14.64501694
W        6.75954150       1.59322190      14.64501694
W        6.75954150       0.00000000      16.89815510
W        4.50636100       1.59322190      16.89815510
W        4.50636100      -0.00000000      21.51025066
W        6.75954150       1.59322190      21.51025066
W        6.75954150      -0.00000000      23.76338882
W        4.50636100       1.59322190      23.76338882
W        4.50636100       0.00000000      26.01651611
W        6.75954150       1.59322190      26.01651611
W        6.75954150       0.00000000      28.26965351
W        4.50636100       1.59322190      28.26965351
W        9.01272200      -0.00000000      30.52274811
W        6.75954150       1.59322190      30.52274811
W        6.75954150      -0.00000000      32.77579113
W        4.50636100       1.59322190      32.77579113
W        4.50636100       0.00000000      35.02878742
W        6.75954150       1.59322190      35.02878742
W        6.75954150      -0.00000000      37.28184986
W        4.50636100       1.59322190      37.28184986
W        4.50636100       3.18644380       1.12655590
W        6.75954150       4.77966570       1.12655590
W        6.75954150       3.18644380       3.37961833
W        9.01272200       4.77966570       3.37961833
W        4.50636100       3.18644380       5.63261462
W        6.75954150       4.77966570       5.63261462
W        6.75954150       3.18644380       7.88565765
W        9.01272200       4.77966570       7.88565765
W        4.50636100       3.18644380      10.13875225
W        6.75954150       4.77966570      10.13875225
W        6.75954150       3.18644380      12.39188965
W        9.01272200       4.77966570      12.39188965
W        9.01272200       3.18644380      14.64501694
W        6.75954150       4.77966570      14.64501694
W        6.75954150       3.18644380      16.89815510
W        4.50636100       4.77966570      16.89815510
W        4.50636100       3.18644380      21.51025066
W        6.75954150       4.77966570      21.51025066
W        6.75954150       3.18644380      23.76338882
W        4.50636100       4.77966570      23.76338882
W        4.50636100       3.18644380      26.01651611
W        6.75954150       4.77966570      26.01651611
W        6.75954150       3.18644380      28.26965351
W        4.50636100       4.77966570      28.26965351
W        9.01272200       3.18644380      30.52274811
W        6.75954150       4.77966570      30.52274811
W        6.75954150       3.18644380      32.77579113
W        4.50636100       4.77966570      32.77579113
W        4.50636100       3.18644380      35.02878742
W        6.75954150       4.77966570      35.02878742
W        6.75954150       3.18644380      37.28184986
W        4.50636100       4.77966570      37.28184986
W        4.50636100       6.37288760       1.12655590
W        6.75954150       7.96610950       1.12655590
W        6.75954150       6.37288760       3.37961833
W        9.01272200       7.96610950       3.37961833
W        4.50636100       6.37288760       5.63261462
W        6.75954150       7.96610950       5.63261462
W        6.75954150       6.37288760       7.88565765
W        9.01272200       7.96610950       7.88565765
W        4.50636100       6.37288760      10.13875225
W        6.75954150       7.96610950      10.13875225
W        6.75954150       6.37288760      12.39188965
W        9.01272200       7.96610950      12.39188965
W        9.01272200       6.37288760      14.64501694
W        6.75954150       7.96610950      14.64501694
W        6.75954150       6.37288760      16.89815510
W        4.50636100       7.96610950      16.89815510
W        4.50636100       6.37288760      21.51025066
W        6.75954150       7.96610950      21.51025066
W        6.75954150       6.37288760      23.76338882
W        4.50636100       7.96610950      23.76338882
W        4.50636100       6.37288760      26.01651611
W        6.75954150       7.96610950      26.01651611
W        6.75954150       6.37288760      28.26965351
W        4.50636100       7.96610950      28.26965351
W        9.01272200       6.37288760      30.52274811
W        6.75954150       7.96610950      30.52274811
W        6.75954150       6.37288760      32.77579113
W        4.50636100       7.96610950      32.77579113
W        4.50636100       6.37288760      35.02878742
W        6.75954150       7.96610950      35.02878742
W        6.75954150       6.37288760      37.28184986
W        4.50636100       7.96610950      37.28184986
W        9.01272200      -0.00000000       1.12655590
W       11.26590250       1.59322190       1.12655590
W       11.26590250       0.00000000       3.37961833
W       13.51908301       1.59322190       3.37961833
W        9.01272200      -0.00000000       5.63261462
W       11.26590250       1.59322190       5.63261462
W       11.26590250      -0.00000000       7.88565765
W       13.51908301       1.59322190       7.88565765
W        9.01272200      -0.00000000      10.13875225
W       11.26590250       1.59322190      10.13875225
W       11.26590250       0.00000000      12.39188965
W       13.51908301       1.59322190      12.39188965
W       13.51908301      -0.00000000      14.64501694
W       11.26590250       1.59322190      14.64501694
W       11.26590250      -0.00000000      16.89815510
W        9.01272200       1.59322190      16.89815510
W        9.01272200      -0.00000000      21.51025066
W       11.26590250       1.59322190      21.51025066
W       11.26590250       0.00000000      23.76338882
W        9.01272200       1.59322190      23.76338882
W        9.01272200       0.00000000      26.01651611
W       11.26590250       1.59322190      26.01651611
W       11.26590250       0.00000000      28.26965351
W        9.01272200       1.59322190      28.26965351
W       13.51908301       0.00000000      30.52274811
W       11.26590250       1.59322190      30.52274811
W       11.26590250      -0.00000000      32.77579113
W        9.01272200       1.59322190      32.77579113
W        9.01272200      -0.00000000      35.02878742
W       11.26590250       1.59322190      35.02878742
W       11.26590250      -0.00000000      37.28184986
W        9.01272200       1.59322190      37.28184986
W        9.01272200       3.18644380       1.12655590
W       11.26590250       4.77966570       1.12655590
W       11.26590250       3.18644380       3.37961833
W       13.51908301       4.77966570       3.37961833
W        9.01272200       3.18644380       5.63261462
W       11.26590250       4.77966570       5.63261462
W       11.26590250       3.18644380       7.88565765
W       13.51908301       4.77966570       7.88565765
W        9.01272200       3.18644380      10.13875225
W       11.26590250       4.77966570      10.13875225
W       11.26590250       3.18644380      12.39188965
W       13.51908301       4.77966570      12.39188965
W       13.51908301       3.18644380      14.64501694
W       11.26590250       4.77966570      14.64501694
W       11.26590250       3.18644380      16.89815510
W        9.01272200       4.77966570      16.89815510
W        9.01272200       3.18644380      21.51025066
W       11.26590250       4.77966570      21.51025066
W       11.26590250       3.18644380      23.76338882
W        9.01272200       4.77966570      23.76338882
W        9.01272200       3.18644380      26.01651611
W       11.26590250       4.77966570      26.01651611
W       11.26590250       3.18644380      28.26965351
W        9.01272200       4.77966570      28.26965351
W       13.51908301       3.18644380      30.52274811
W       11.26590250       4.77966570      30.52274811
W       11.26590250       3.18644380      32.77579113
W        9.01272200       4.77966570      32.77579113
W        9.01272200       3.18644380      35.02878742
W       11.26590250       4.77966570      35.02878742
W       11.26590250       3.18644380      37.28184986
W        9.01272200       4.77966570      37.28184986
W        9.01272200       6.37288760       1.12655590
W       11.26590250       7.96610950       1.12655590
W       11.26590250       6.37288760       3.37961833
W       13.51908301       7.96610950       3.37961833
W        9.01272200       6.37288760       5.63261462
W       11.26590250       7.96610950       5.63261462
W       11.26590250       6.37288760       7.88565765
W       13.51908301       7.96610950       7.88565765
W        9.01272200       6.37288760      10.13875225
W       11.26590250       7.96610950      10.13875225
W       11.26590250       6.37288760      12.39188965
W       13.51908301       7.96610950      12.39188965
W       13.51908301       6.37288760      14.64501694
W       11.26590250       7.96610950      14.64501694
W       11.26590250       6.37288760      16.89815510
W        9.01272200       7.96610950      16.89815510
W        9.01272200       6.37288760      21.51025066
W       11.26590250       7.96610950      21.51025066
W       11.26590250       6.37288760      23.76338882
W        9.01272200       7.96610950      23.76338882
W        9.01272200       6.37288760      26.01651611
W       11.26590250       7.96610950      26.01651611
W       11.26590250       6.37288760      28.26965351
W        9.01272200       7.96610950      28.26965351
W       13.51908301       6.37288760      30.52274811
W       11.26590250       7.96610950      30.52274811
W       11.26590250       6.37288760      32.77579113
W        9.01272200       7.96610950      32.77579113
W        9.01272200       6.37288760      35.02878742
W       11.26590250       7.96610950      35.02878742
W       11.26590250       6.37288760      37.28184986
W        9.01272200       7.96610950      37.28184986
288
Lattice="13.519083005276505 3.9762680028551066e-17 -4.0430281816947754e-17 2.832107032207403e-17 9.559331404516637 -2.7421228983415876e-17 -9.765279892702126e-17 -9.449974793418939e-17 38.510969860068215" Properties=species:S:1:pos:R:3 vacuum_gap_Ang=2.4615384615384617 frame_index=24 pbc="T T T"
W       -0.00000000       0.00000000       1.12655590
W        2.25318050       1.59322190       1.12655590
W        2.25318050       0.00000000       3.37961833
W        4.50636100       1.59322190       3.37961833
W       -0.00000000       0.00000000       5.63261462
W        2.25318050       1.59322190       5.63261462
W        2.25318050      -0.00000000       7.88565765
W        4.50636100       1.59322190       7.88565765
W       -0.00000000       0.00000000      10.13875225
W        2.25318050       1.59322190      10.13875225
W        2.25318050      -0.00000000      12.39188965
W        4.50636100       1.59322190      12.39188965
W        4.50636100      -0.00000000      14.64501694
W        2.25318050       1.59322190      14.64501694
W        2.25318050       0.00000000      16.89815510
W       -0.00000000       1.59322190      16.89815510
W       -0.00000000       0.00000000      21.61281476
W        2.25318050       1.59322190      21.61281476
W        2.25318050      -0.00000000      23.86595292
W       -0.00000000       1.59322190      23.86595292
W       -0.00000000      -0.00000000      26.11908021
W        2.25318050       1.59322190      26.11908021
W        2.25318050       0.00000000      28.37221761
W       -0.00000000       1.59322190      28.37221761
W        4.50636100      -0.00000000      30.62531221
W        2.25318050       1.59322190      30.62531221
W        2.25318050      -0.00000000      32.87835524
W       -0.00000000       1.59322190      32.87835524
W       -0.00000000      -0.00000000      35.13135153
W        2.25318050       1.59322190      35.13135153
W        2.25318050       0.00000000      37.38441396
W       -0.00000000       1.59322190      37.38441396
W       -0.00000000       3.18644380       1.12655590
W        2.25318050       4.77966570       1.12655590
W        2.25318050       3.18644380       3.37961833
W        4.50636100       4.77966570       3.37961833
W       -0.00000000       3.18644380       5.63261462
W        2.25318050       4.77966570       5.63261462
W        2.25318050       3.18644380       7.88565765
W        4.50636100       4.77966570       7.88565765
W       -0.00000000       3.18644380      10.13875225
W        2.25318050       4.77966570      10.13875225
W        2.25318050       3.18644380      12.39188965
W        4.50636100       4.77966570      12.39188965
W        4.50636100       3.18644380      14.64501694
W        2.25318050       4.77966570      14.64501694
W        2.25318050       3.18644380      16.89815510
W       -0.00000000       4.77966570      16.89815510
W       -0.00000000       3.18644380      21.61281476
W        2.25318050       4.77966570      21.61281476
W        2.25318050       3.18644380      23.86595292
W       -0.00000000       4.77966570      23.86595292
W       -0.00000000       3.18644380      26.11908021
W        2.25318050       4.77966570      26.11908021
W        2.25318050       3.18644380      28.37221761
W       -0.00000000       4.77966570      28.37221761
W        4.50636100       3.18644380      30.62531221
W        2.25318050       4.77966570      30.62531221
W        2.25318050       3.18644380      32.87835524
W       -0.00000000       4.77966570      32.87835524
W       -0.00000000       3.18644380      35.13135153
W        2.25318050       4.77966570      35.13135153
W        2.25318050       3.18644380      37.38441396
W       -0.00000000       4.77966570      37.38441396
W       -0.00000000       6.37288760       1.12655590
W        2.25318050       7.96610950       1.12655590
W        2.25318050       6.37288760       3.37961833
W        4.50636100       7.96610950       3.37961833
W       -0.00000000       6.37288760       5.63261462
W        2.25318050       7.96610950       5.63261462
W        2.25318050       6.37288760       7.88565765
W        4.50636100       7.96610950       7.88565765
W        0.00000000       6.37288760      10.13875225
W        2.25318050       7.96610950      10.13875225
W        2.25318050       6.37288760      12.39188965
W        4.50636100       7.96610950      12.39188965
W        4.50636100       6.37288760      14.64501694
W        2.25318050       7.96610950      14.64501694
W        2.25318050       6.37288760      16.89815510
W       -0.00000000       7.96610950      16.89815510
W       -0.00000000       6.37288760      21.61281476
W        2.25318050       7.96610950      21.61281476
W        2.25318050       6.37288760      23.86595292
W       -0.00000000       7.96610950      23.86595292
W       -0.00000000       6.37288760      26.11908021
W        2.25318050       7.96610950      26.11908021
W        2.25318050       6.37288760      28.37221761
W       -0.00000000       7.96610950      28.37221761
W        4.50636100       6.37288760      30.62531221
W        2.25318050       7.96610950      30.62531221
W        2.25318050       6.37288760      32.87835524
W       -0.00000000       7.96610950      32.87835524
W       -0.00000000       6.37288760      35.13135153
W        2.25318050       7.96610950      35.13135153
W        2.25318050       6.37288760      37.38441396
W       -0.00000000       7.96610950      37.38441396
W        4.50636100      -0.00000000       1.12655590
W        6.75954150       1.59322190       1.12655590
W        6.75954150       0.00000000       3.37961833
W        9.01272200       1.59322190       3.37961833
W        4.50636100       0.00000000       5.63261462
W        6.75954150       1.59322190       5.63261462
W        6.75954150      -0.00000000       7.88565765
W        9.01272200       1.59322190       7.88565765
W        4.50636100      -0.00000000      10.13875225
W        6.75954150       1.59322190      10.13875225
W        6.75954150       0.00000000      12.39188965
W        9.01272200       1.59322190      12.39188965
W        9.01272200      -0.00000000      14.64501694
W        6.75954150       1.59322190      14.64501694
W        6.75954150       0.00000000      16.89815510
W        4.50636100       1.59322190      16.89815510
W        4.50636100      -0.00000000      21.61281476
W        6.75954150       1.59322190      21.61281476
W        6.75954150      -0.00000000      23.86595292
W        4.50636100       1.59322190      23.86595292
W        4.50636100       0.00000000      26.11908021
W        6.75954150       1.59322190      26.11908021
W        6.75954150       0.00000000      28.37221761
W        4.50636100       1.59322190      28.37221761
W        9.01272200      -0.00000000      30.62531221
W        6.75954150       1.59322190      30.62531221
W        6.75954150      -0.00000000      32.87835524
W        4.50636100       1.59322190      32.87835524
W        4.50636100       0.00000000      35.13135153
W        6.75954150       1.59322190      35.13135153
W        6.75954150      -0.00000000      37.38441396
W        4.50636100       1.59322190      37.38441396
W        4.50636100       3.18644380       1.12655590
W        6.75954150       4.77966570       1.12655590
W        6.75954150       3.18644380       3.37961833
W        9.01272200       4.77966570       3.37961833
W        4.50636100       3.18644380       5.63261462
W        6.75954150       4.77966570       5.63261462
W        6.75954150       3.18644380       7.88565765
W        9.01272200       4.77966570       7.88565765
W        4.50636100       3.18644380      10.13875225
W        6.75954150       4.77966570      10.13875225
W        6.75954150       3.18644380      12.39188965
W        9.01272200       4.77966570      12.39188965
W        9.01272200       3.18644380      14.64501694
W        6.75954150       4.77966570      14.64501694
W        6.75954150       3.18644380      16.89815510
W        4.50636100       4.77966570      16.89815510
W        4.50636100       3.18644380      21.61281476
W        6.75954150       4.77966570      21.61281476
W        6.75954150       3.18644380      23.86595292
W        4.50636100       4.77966570      23.86595292
W        4.50636100       3.18644380      26.11908021
W        6.75954150       4.77966570      26.11908021
W        6.75954150       3.18644380      28.37221761
W        4.50636100       4.77966570      28.37221761
W        9.01272200       3.18644380      30.62531221
W        6.75954150       4.77966570      30.62531221
W        6.75954150       3.18644380      32.87835524
W        4.50636100       4.77966570      32.87835524
W        4.50636100       3.18644380      35.13135153
W        6.75954150       4.77966570      35.13135153
W        6.75954150       3.18644380      37.38441396
W        4.50636100       4.77966570      37.38441396
W        4.50636100       6.37288760       1.12655590
W        6.75954150       7.96610950       1.12655590
W        6.75954150       6.37288760       3.37961833
W        9.01272200       7.96610950       3.37961833
W        4.50636100       6.37288760       5.63261462
W        6.75954150       7.96610950       5.63261462
W        6.75954150       6.37288760       7.88565765
W        9.01272200       7.96610950       7.88565765
W        4.50636100       6.37288760      10.13875225
W        6.75954150       7.96610950      10.13875225
W        6.75954150       6.37288760      12.39188965
W        9.01272200       7.96610950      12.39188965
W        9.01272200       6.37288760      14.64501694
W        6.75954150       7.96610950      14.64501694
W        6.75954150       6.37288760      16.89815510
W        4.50636100       7.96610950      16.89815510
W        4.50636100       6.37288760      21.61281476
W        6.75954150       7.96610950      21.61281476
W        6.75954150       6.37288760      23.86595292
W        4.50636100       7.96610950      23.86595292
W        4.50636100       6.37288760      26.11908021
W        6.75954150       7.96610950      26.11908021
W        6.75954150       6.37288760      28.37221761
W        4.50636100       7.96610950      28.37221761
W        9.01272200       6.37288760      30.62531221
W        6.75954150       7.96610950      30.62531221
W        6.75954150       6.37288760      32.87835524
W        4.50636100       7.96610950      32.87835524
W        4.50636100       6.37288760      35.13135153
W        6.75954150       7.96610950      35.13135153
W        6.75954150       6.37288760      37.38441396
W        4.50636100       7.96610950      37.38441396
W        9.01272200      -0.00000000       1.12655590
W       11.26590250       1.59322190       1.12655590
W       11.26590250       0.00000000       3.37961833
W       13.51908301       1.59322190       3.37961833
W        9.01272200      -0.00000000       5.63261462
W       11.26590250       1.59322190       5.63261462
W       11.26590250      -0.00000000       7.88565765
W       13.51908301       1.59322190       7.88565765
W        9.01272200      -0.00000000      10.13875225
W       11.26590250       1.59322190      10.13875225
W       11.26590250       0.00000000      12.39188965
W       13.51908301       1.59322190      12.39188965
W       13.51908301      -0.00000000      14.64501694
W       11.26590250       1.59322190      14.64501694
W       11.26590250      -0.00000000      16.89815510
W        9.01272200       1.59322190      16.89815510
W        9.01272200      -0.00000000      21.61281476
W       11.26590250       1.59322190      21.61281476
W       11.26590250       0.00000000      23.86595292
W        9.01272200       1.59322190      23.86595292
W        9.01272200       0.00000000      26.11908021
W       11.26590250       1.59322190      26.11908021
W       11.26590250       0.00000000      28.37221761
W        9.01272200       1.59322190      28.37221761
W       13.51908301       0.00000000      30.62531221
W       11.26590250       1.59322190      30.62531221
W       11.26590250      -0.00000000      32.87835524
W        9.01272200       1.59322190      32.87835524
W        9.01272200      -0.00000000      35.13135153
W       11.26590250       1.59322190      35.13135153
W       11.26590250      -0.00000000      37.38441396
W        9.01272200       1.59322190      37.38441396
W        9.01272200       3.18644380       1.12655590
W       11.26590250       4.77966570       1.12655590
W       11.26590250       3.18644380       3.37961833
W       13.51908301       4.77966570       3.37961833
W        9.01272200       3.18644380       5.63261462
W       11.26590250       4.77966570       5.63261462
W       11.26590250       3.18644380       7.88565765
W       13.51908301       4.77966570       7.88565765
W        9.01272200       3.18644380      10.13875225
W       11.26590250       4.77966570      10.13875225
W       11.26590250       3.18644380      12.39188965
W       13.51908301       4.77966570      12.39188965
W       13.51908301       3.18644380      14.64501694
W       11.26590250       4.77966570      14.64501694
W       11.26590250       3.18644380      16.89815510
W        9.01272200       4.77966570      16.89815510
W        9.01272200       3.18644380      21.61281476
W       11.26590250       4.77966570      21.61281476
W       11.26590250       3.18644380      23.86595292
W        9.01272200       4.77966570      23.86595292
W        9.01272200       3.18644380      26.11908021
W       11.26590250       4.77966570      26.11908021
W       11.26590250       3.18644380      28.37221761
W        9.01272200       4.77966570      28.37221761
W       13.51908301       3.18644380      30.62531221
W       11.26590250       4.77966570      30.62531221
W       11.26590250       3.18644380      32.87835524
W        9.01272200       4.77966570      32.87835524
W        9.01272200       3.18644380      35.13135153
W       11.26590250       4.77966570      35.13135153
W       11.26590250       3.18644380      37.38441396
W        9.01272200       4.77966570      37.38441396
W        9.01272200       6.37288760       1.12655590
W       11.26590250       7.96610950       1.12655590
W       11.26590250       6.37288760       3.37961833
W       13.51908301       7.96610950       3.37961833
W        9.01272200       6.37288760       5.63261462
W       11.26590250       7.96610950       5.63261462
W       11.26590250       6.37288760       7.88565765
W       13.51908301       7.96610950       7.88565765
W        9.01272200       6.37288760      10.13875225
W       11.26590250       7.96610950      10.13875225
W       11.26590250       6.37288760      12.39188965
W       13.51908301       7.96610950      12.39188965
W       13.51908301       6.37288760      14.64501694
W       11.26590250       7.96610950      14.64501694
W       11.26590250       6.37288760      16.89815510
W        9.01272200       7.96610950      16.89815510
W        9.01272200       6.37288760      21.61281476
W       11.26590250       7.96610950      21.61281476
W       11.26590250       6.37288760      23.86595292
W        9.01272200       7.96610950      23.86595292
W        9.01272200       6.37288760      26.11908021
W       11.26590250       7.96610950      26.11908021
W       11.26590250       6.37288760      28.37221761
W        9.01272200       7.96610950      28.37221761
W       13.51908301       6.37288760      30.62531221
W       11.26590250       7.96610950      30.62531221
W       11.26590250       6.37288760      32.87835524
W        9.01272200       7.96610950      32.87835524
W        9.01272200       6.37288760      35.13135153
W       11.26590250       7.96610950      35.13135153
W       11.26590250       6.37288760      37.38441396
W        9.01272200       7.96610950      37.38441396
288
Lattice="13.519083005276505 3.9762680028551066e-17 -4.0430281816947754e-17 2.832107032207403e-17 9.559331404516637 -2.7421228983415876e-17 -9.765279892702126e-17 -9.449974793418939e-17 38.61353396263232" Properties=species:S:1:pos:R:3 vacuum_gap_Ang=2.564102564102564 frame_index=25 pbc="T T T"
W       -0.00000000       0.00000000       1.12655590
W        2.25318050       1.59322190       1.12655590
W        2.25318050       0.00000000       3.37961833
W        4.50636100       1.59322190       3.37961833
W       -0.00000000       0.00000000       5.63261462
W        2.25318050       1.59322190       5.63261462
W        2.25318050      -0.00000000       7.88565765
W        4.50636100       1.59322190       7.88565765
W       -0.00000000       0.00000000      10.13875225
W        2.25318050       1.59322190      10.13875225
W        2.25318050      -0.00000000      12.39188965
W        4.50636100       1.59322190      12.39188965
W        4.50636100      -0.00000000      14.64501694
W        2.25318050       1.59322190      14.64501694
W        2.25318050       0.00000000      16.89815510
W       -0.00000000       1.59322190      16.89815510
W       -0.00000000       0.00000000      21.71537887
W        2.25318050       1.59322190      21.71537887
W        2.25318050      -0.00000000      23.96851702
W       -0.00000000       1.59322190      23.96851702
W       -0.00000000      -0.00000000      26.22164431
W        2.25318050       1.59322190      26.22164431
W        2.25318050       0.00000000      28.47478171
W       -0.00000000       1.59322190      28.47478171
W        4.50636100      -0.00000000      30.72787631
W        2.25318050       1.59322190      30.72787631
W        2.25318050      -0.00000000      32.98091934
W       -0.00000000       1.59322190      32.98091934
W       -0.00000000      -0.00000000      35.23391563
W        2.25318050       1.59322190      35.23391563
W        2.25318050       0.00000000      37.48697807
W       -0.00000000       1.59322190      37.48697807
W       -0.00000000       3.18644380       1.12655590
W        2.25318050       4.77966570       1.12655590
W        2.25318050       3.18644380       3.37961833
W        4.50636100       4.77966570       3.37961833
W       -0.00000000       3.18644380       5.63261462
W        2.25318050       4.77966570       5.63261462
W        2.25318050       3.18644380       7.88565765
W        4.50636100       4.77966570       7.88565765
W       -0.00000000       3.18644380      10.13875225
W        2.25318050       4.77966570      10.13875225
W        2.25318050       3.18644380      12.39188965
W        4.50636100       4.77966570      12.39188965
W        4.50636100       3.18644380      14.64501694
W        2.25318050       4.77966570      14.64501694
W        2.25318050       3.18644380      16.89815510
W       -0.00000000       4.77966570      16.89815510
W       -0.00000000       3.18644380      21.71537887
W        2.25318050       4.77966570      21.71537887
W        2.25318050       3.18644380      23.96851702
W       -0.00000000       4.77966570      23.96851702
W       -0.00000000       3.18644380      26.22164431
W        2.25318050       4.77966570      26.22164431
W        2.25318050       3.18644380      28.47478171
W       -0.00000000       4.77966570      28.47478171
W        4.50636100       3.18644380      30.72787631
W        2.25318050       4.77966570      30.72787631
W        2.25318050       3.18644380      32.98091934
W       -0.00000000       4.77966570      32.98091934
W       -0.00000000       3.18644380      35.23391563
W        2.25318050       4.77966570      35.23391563
W        2.25318050       3.18644380      37.48697807
W       -0.00000000       4.77966570      37.48697807
W       -0.00000000       6.37288760       1.12655590
W        2.25318050       7.96610950       1.12655590
W        2.25318050       6.37288760       3.37961833
W        4.50636100       7.96610950       3.37961833
W       -0.00000000       6.37288760       5.63261462
W        2.25318050       7.96610950       5.63261462
W        2.25318050       6.37288760       7.88565765
W        4.50636100       7.96610950       7.88565765
W        0.00000000       6.37288760      10.13875225
W        2.25318050       7.96610950      10.13875225
W        2.25318050       6.37288760      12.39188965
W        4.50636100       7.96610950      12.39188965
W        4.50636100       6.37288760      14.64501694
W        2.25318050       7.96610950      14.64501694
W        2.25318050       6.37288760      16.89815510
W       -0.00000000       7.96610950      16.89815510
W       -0.00000000       6.37288760      21.71537887
W        2.25318050       7.96610950      21.71537887
W        2.25318050       6.37288760      23.96851702
W       -0.00000000       7.96610950      23.96851702
W       -0.00000000       6.37288760      26.22164431
W        2.25318050       7.96610950      26.22164431
W        2.25318050       6.37288760      28.47478171
W       -0.00000000       7.96610950      28.47478171
W        4.50636100       6.37288760      30.72787631
W        2.25318050       7.96610950      30.72787631
W        2.25318050       6.37288760      32.98091934
W       -0.00000000       7.96610950      32.98091934
W       -0.00000000       6.37288760      35.23391563
W        2.25318050       7.96610950      35.23391563
W        2.25318050       6.37288760      37.48697807
W       -0.00000000       7.96610950      37.48697807
W        4.50636100      -0.00000000       1.12655590
W        6.75954150       1.59322190       1.12655590
W        6.75954150       0.00000000       3.37961833
W        9.01272200       1.59322190       3.37961833
W        4.50636100       0.00000000       5.63261462
W        6.75954150       1.59322190       5.63261462
W        6.75954150      -0.00000000       7.88565765
W        9.01272200       1.59322190       7.88565765
W        4.50636100      -0.00000000      10.13875225
W        6.75954150       1.59322190      10.13875225
W        6.75954150       0.00000000      12.39188965
W        9.01272200       1.59322190      12.39188965
W        9.01272200      -0.00000000      14.64501694
W        6.75954150       1.59322190      14.64501694
W        6.75954150       0.00000000      16.89815510
W        4.50636100       1.59322190      16.89815510
W        4.50636100      -0.00000000      21.71537887
W        6.75954150       1.59322190      21.71537887
W        6.75954150      -0.00000000      23.96851702
W        4.50636100       1.59322190      23.96851702
W        4.50636100       0.00000000      26.22164431
W        6.75954150       1.59322190      26.22164431
W        6.75954150       0.00000000      28.47478171
W        4.50636100       1.59322190      28.47478171
W        9.01272200      -0.00000000      30.72787631
W        6.75954150       1.59322190      30.72787631
W        6.75954150      -0.00000000      32.98091934
W        4.50636100       1.59322190      32.98091934
W        4.50636100       0.00000000      35.23391563
W        6.75954150       1.59322190      35.23391563
W        6.75954150      -0.00000000      37.48697807
W        4.50636100       1.59322190      37.48697807
W        4.50636100       3.18644380       1.12655590
W        6.75954150       4.77966570       1.12655590
W        6.75954150       3.18644380       3.37961833
W        9.01272200       4.77966570       3.37961833
W        4.50636100       3.18644380       5.63261462
W        6.75954150       4.77966570       5.63261462
W        6.75954150       3.18644380       7.88565765
W        9.01272200       4.77966570       7.88565765
W        4.50636100       3.18644380      10.13875225
W        6.75954150       4.77966570      10.13875225
W        6.75954150       3.18644380      12.39188965
W        9.01272200       4.77966570      12.39188965
W        9.01272200       3.18644380      14.64501694
W        6.75954150       4.77966570      14.64501694
W        6.75954150       3.18644380      16.89815510
W        4.50636100       4.77966570      16.89815510
W        4.50636100       3.18644380      21.71537887
W        6.75954150       4.77966570      21.71537887
W        6.75954150       3.18644380      23.96851702
W        4.50636100       4.77966570      23.96851702
W        4.50636100       3.18644380      26.22164431
W        6.75954150       4.77966570      26.22164431
W        6.75954150       3.18644380      28.47478171
W        4.50636100       4.77966570      28.47478171
W        9.01272200       3.18644380      30.72787631
W        6.75954150       4.77966570      30.72787631
W        6.75954150       3.18644380      32.98091934
W        4.50636100       4.77966570      32.98091934
W        4.50636100       3.18644380      35.23391563
W        6.75954150       4.77966570      35.23391563
W        6.75954150       3.18644380      37.48697807
W        4.50636100       4.77966570      37.48697807
W        4.50636100       6.37288760       1.12655590
W        6.75954150       7.96610950       1.12655590
W        6.75954150       6.37288760       3.37961833
W        9.01272200       7.96610950       3.37961833
W        4.50636100       6.37288760       5.63261462
W        6.75954150       7.96610950       5.63261462
W        6.75954150       6.37288760       7.88565765
W        9.01272200       7.96610950       7.88565765
W        4.50636100       6.37288760      10.13875225
W        6.75954150       7.96610950      10.13875225
W        6.75954150       6.37288760      12.39188965
W        9.01272200       7.96610950      12.39188965
W        9.01272200       6.37288760      14.64501694
W        6.75954150       7.96610950      14.64501694
W        6.75954150       6.37288760      16.89815510
W        4.50636100       7.96610950      16.89815510
W        4.50636100       6.37288760      21.71537887
W        6.75954150       7.96610950      21.71537887
W        6.75954150       6.37288760      23.96851702
W        4.50636100       7.96610950      23.96851702
W        4.50636100       6.37288760      26.22164431
W        6.75954150       7.96610950      26.22164431
W        6.75954150       6.37288760      28.47478171
W        4.50636100       7.96610950      28.47478171
W        9.01272200       6.37288760      30.72787631
W        6.75954150       7.96610950      30.72787631
W        6.75954150       6.37288760      32.98091934
W        4.50636100       7.96610950      32.98091934
W        4.50636100       6.37288760      35.23391563
W        6.75954150       7.96610950      35.23391563
W        6.75954150       6.37288760      37.48697807
W        4.50636100       7.96610950      37.48697807
W        9.01272200      -0.00000000       1.12655590
W       11.26590250       1.59322190       1.12655590
W       11.26590250       0.00000000       3.37961833
W       13.51908301       1.59322190       3.37961833
W        9.01272200      -0.00000000       5.63261462
W       11.26590250       1.59322190       5.63261462
W       11.26590250      -0.00000000       7.88565765
W       13.51908301       1.59322190       7.88565765
W        9.01272200      -0.00000000      10.13875225
W       11.26590250       1.59322190      10.13875225
W       11.26590250       0.00000000      12.39188965
W       13.51908301       1.59322190      12.39188965
W       13.51908301      -0.00000000      14.64501694
W       11.26590250       1.59322190      14.64501694
W       11.26590250      -0.00000000      16.89815510
W        9.01272200       1.59322190      16.89815510
W        9.01272200      -0.00000000      21.71537887
W       11.26590250       1.59322190      21.71537887
W       11.26590250       0.00000000      23.96851702
W        9.01272200       1.59322190      23.96851702
W        9.01272200       0.00000000      26.22164431
W       11.26590250       1.59322190      26.22164431
W       11.26590250       0.00000000      28.47478171
W        9.01272200       1.59322190      28.47478171
W       13.51908301       0.00000000      30.72787631
W       11.26590250       1.59322190      30.72787631
W       11.26590250      -0.00000000      32.98091934
W        9.01272200       1.59322190      32.98091934
W        9.01272200      -0.00000000      35.23391563
W       11.26590250       1.59322190      35.23391563
W       11.26590250      -0.00000000      37.48697807
W        9.01272200       1.59322190      37.48697807
W        9.01272200       3.18644380       1.12655590
W       11.26590250       4.77966570       1.12655590
W       11.26590250       3.18644380       3.37961833
W       13.51908301       4.77966570       3.37961833
W        9.01272200       3.18644380       5.63261462
W       11.26590250       4.77966570       5.63261462
W       11.26590250       3.18644380       7.88565765
W       13.51908301       4.77966570       7.88565765
W        9.01272200       3.18644380      10.13875225
W       11.26590250       4.77966570      10.13875225
W       11.26590250       3.18644380      12.39188965
W       13.51908301       4.77966570      12.39188965
W       13.51908301       3.18644380      14.64501694
W       11.26590250       4.77966570      14.64501694
W       11.26590250       3.18644380      16.89815510
W        9.01272200       4.77966570      16.89815510
W        9.01272200       3.18644380      21.71537887
W       11.26590250       4.77966570      21.71537887
W       11.26590250       3.18644380      23.96851702
W        9.01272200       4.77966570      23.96851702
W        9.01272200       3.18644380      26.22164431
W       11.26590250       4.77966570      26.22164431
W       11.26590250       3.18644380      28.47478171
W        9.01272200       4.77966570      28.47478171
W       13.51908301       3.18644380      30.72787631
W       11.26590250       4.77966570      30.72787631
W       11.26590250       3.18644380      32.98091934
W        9.01272200       4.77966570      32.98091934
W        9.01272200       3.18644380      35.23391563
W       11.26590250       4.77966570      35.23391563
W       11.26590250       3.18644380      37.48697807
W        9.01272200       4.77966570      37.48697807
W        9.01272200       6.37288760       1.12655590
W       11.26590250       7.96610950       1.12655590
W       11.26590250       6.37288760       3.37961833
W       13.51908301       7.96610950       3.37961833
W        9.01272200       6.37288760       5.63261462
W       11.26590250       7.96610950       5.63261462
W       11.26590250       6.37288760       7.88565765
W       13.51908301       7.96610950       7.88565765
W        9.01272200       6.37288760      10.13875225
W       11.26590250       7.96610950      10.13875225
W       11.26590250       6.37288760      12.39188965
W       13.51908301       7.96610950      12.39188965
W       13.51908301       6.37288760      14.64501694
W       11.26590250       7.96610950      14.64501694
W       11.26590250       6.37288760      16.89815510
W        9.01272200       7.96610950      16.89815510
W        9.01272200       6.37288760      21.71537887
W       11.26590250       7.96610950      21.71537887
W       11.26590250       6.37288760      23.96851702
W        9.01272200       7.96610950      23.96851702
W        9.01272200       6.37288760      26.22164431
W       11.26590250       7.96610950      26.22164431
W       11.26590250       6.37288760      28.47478171
W        9.01272200       7.96610950      28.47478171
W       13.51908301       6.37288760      30.72787631
W       11.26590250       7.96610950      30.72787631
W       11.26590250       6.37288760      32.98091934
W        9.01272200       7.96610950      32.98091934
W        9.01272200       6.37288760      35.23391563
W       11.26590250       7.96610950      35.23391563
W       11.26590250       6.37288760      37.48697807
W        9.01272200       7.96610950      37.48697807
288
Lattice="13.519083005276505 3.9762680028551066e-17 -4.0430281816947754e-17 2.832107032207403e-17 9.559331404516637 -2.7421228983415876e-17 -9.765279892702126e-17 -9.449974793418939e-17 38.71609806519642" Properties=species:S:1:pos:R:3 vacuum_gap_Ang=2.6666666666666665 frame_index=26 pbc="T T T"
W       -0.00000000       0.00000000       1.12655590
W        2.25318050       1.59322190       1.12655590
W        2.25318050       0.00000000       3.37961833
W        4.50636100       1.59322190       3.37961833
W       -0.00000000       0.00000000       5.63261462
W        2.25318050       1.59322190       5.63261462
W        2.25318050      -0.00000000       7.88565765
W        4.50636100       1.59322190       7.88565765
W       -0.00000000       0.00000000      10.13875225
W        2.25318050       1.59322190      10.13875225
W        2.25318050      -0.00000000      12.39188965
W        4.50636100       1.59322190      12.39188965
W        4.50636100      -0.00000000      14.64501694
W        2.25318050       1.59322190      14.64501694
W        2.25318050       0.00000000      16.89815510
W       -0.00000000       1.59322190      16.89815510
W       -0.00000000       0.00000000      21.81794297
W        2.25318050       1.59322190      21.81794297
W        2.25318050      -0.00000000      24.07108112
W       -0.00000000       1.59322190      24.07108112
W       -0.00000000      -0.00000000      26.32420842
W        2.25318050       1.59322190      26.32420842
W        2.25318050       0.00000000      28.57734581
W       -0.00000000       1.59322190      28.57734581
W        4.50636100      -0.00000000      30.83044041
W        2.25318050       1.59322190      30.83044041
W        2.25318050      -0.00000000      33.08348344
W       -0.00000000       1.59322190      33.08348344
W       -0.00000000      -0.00000000      35.33647973
W        2.25318050       1.59322190      35.33647973
W        2.25318050       0.00000000      37.58954217
W       -0.00000000       1.59322190      37.58954217
W       -0.00000000       3.18644380       1.12655590
W        2.25318050       4.77966570       1.12655590
W        2.25318050       3.18644380       3.37961833
W        4.50636100       4.77966570       3.37961833
W       -0.00000000       3.18644380       5.63261462
W        2.25318050       4.77966570       5.63261462
W        2.25318050       3.18644380       7.88565765
W        4.50636100       4.77966570       7.88565765
W       -0.00000000       3.18644380      10.13875225
W        2.25318050       4.77966570      10.13875225
W        2.25318050       3.18644380      12.39188965
W        4.50636100       4.77966570      12.39188965
W        4.50636100       3.18644380      14.64501694
W        2.25318050       4.77966570      14.64501694
W        2.25318050       3.18644380      16.89815510
W       -0.00000000       4.77966570      16.89815510
W       -0.00000000       3.18644380      21.81794297
W        2.25318050       4.77966570      21.81794297
W        2.25318050       3.18644380      24.07108112
W       -0.00000000       4.77966570      24.07108112
W       -0.00000000       3.18644380      26.32420842
W        2.25318050       4.77966570      26.32420842
W        2.25318050       3.18644380      28.57734581
W       -0.00000000       4.77966570      28.57734581
W        4.50636100       3.18644380      30.83044041
W        2.25318050       4.77966570      30.83044041
W        2.25318050       3.18644380      33.08348344
W       -0.00000000       4.77966570      33.08348344
W       -0.00000000       3.18644380      35.33647973
W        2.25318050       4.77966570      35.33647973
W        2.25318050       3.18644380      37.58954217
W       -0.00000000       4.77966570      37.58954217
W       -0.00000000       6.37288760       1.12655590
W        2.25318050       7.96610950       1.12655590
W        2.25318050       6.37288760       3.37961833
W        4.50636100       7.96610950       3.37961833
W       -0.00000000       6.37288760       5.63261462
W        2.25318050       7.96610950       5.63261462
W        2.25318050       6.37288760       7.88565765
W        4.50636100       7.96610950       7.88565765
W        0.00000000       6.37288760      10.13875225
W        2.25318050       7.96610950      10.13875225
W        2.25318050       6.37288760      12.39188965
W        4.50636100       7.96610950      12.39188965
W        4.50636100       6.37288760      14.64501694
W        2.25318050       7.96610950      14.64501694
W        2.25318050       6.37288760      16.89815510
W       -0.00000000       7.96610950      16.89815510
W       -0.00000000       6.37288760      21.81794297
W        2.25318050       7.96610950      21.81794297
W        2.25318050       6.37288760      24.07108112
W       -0.00000000       7.96610950      24.07108112
W       -0.00000000       6.37288760      26.32420842
W        2.25318050       7.96610950      26.32420842
W        2.25318050       6.37288760      28.57734581
W       -0.00000000       7.96610950      28.57734581
W        4.50636100       6.37288760      30.83044041
W        2.25318050       7.96610950      30.83044041
W        2.25318050       6.37288760      33.08348344
W       -0.00000000       7.96610950      33.08348344
W       -0.00000000       6.37288760      35.33647973
W        2.25318050       7.96610950      35.33647973
W        2.25318050       6.37288760      37.58954217
W       -0.00000000       7.96610950      37.58954217
W        4.50636100      -0.00000000       1.12655590
W        6.75954150       1.59322190       1.12655590
W        6.75954150       0.00000000       3.37961833
W        9.01272200       1.59322190       3.37961833
W        4.50636100       0.00000000       5.63261462
W        6.75954150       1.59322190       5.63261462
W        6.75954150      -0.00000000       7.88565765
W        9.01272200       1.59322190       7.88565765
W        4.50636100      -0.00000000      10.13875225
W        6.75954150       1.59322190      10.13875225
W        6.75954150       0.00000000      12.39188965
W        9.01272200       1.59322190      12.39188965
W        9.01272200      -0.00000000      14.64501694
W        6.75954150       1.59322190      14.64501694
W        6.75954150       0.00000000      16.89815510
W        4.50636100       1.59322190      16.89815510
W        4.50636100      -0.00000000      21.81794297
W        6.75954150       1.59322190      21.81794297
W        6.75954150      -0.00000000      24.07108112
W        4.50636100       1.59322190      24.07108112
W        4.50636100       0.00000000      26.32420842
W        6.75954150       1.59322190      26.32420842
W        6.75954150       0.00000000      28.57734581
W        4.50636100       1.59322190      28.57734581
W        9.01272200      -0.00000000      30.83044041
W        6.75954150       1.59322190      30.83044041
W        6.75954150      -0.00000000      33.08348344
W        4.50636100       1.59322190      33.08348344
W        4.50636100       0.00000000      35.33647973
W        6.75954150       1.59322190      35.33647973
W        6.75954150      -0.00000000      37.58954217
W        4.50636100       1.59322190      37.58954217
W        4.50636100       3.18644380       1.12655590
W        6.75954150       4.77966570       1.12655590
W        6.75954150       3.18644380       3.37961833
W        9.01272200       4.77966570       3.37961833
W        4.50636100       3.18644380       5.63261462
W        6.75954150       4.77966570       5.63261462
W        6.75954150       3.18644380       7.88565765
W        9.01272200       4.77966570       7.88565765
W        4.50636100       3.18644380      10.13875225
W        6.75954150       4.77966570      10.13875225
W        6.75954150       3.18644380      12.39188965
W        9.01272200       4.77966570      12.39188965
W        9.01272200       3.18644380      14.64501694
W        6.75954150       4.77966570      14.64501694
W        6.75954150       3.18644380      16.89815510
W        4.50636100       4.77966570      16.89815510
W        4.50636100       3.18644380      21.81794297
W        6.75954150       4.77966570      21.81794297
W        6.75954150       3.18644380      24.07108112
W        4.50636100       4.77966570      24.07108112
W        4.50636100       3.18644380      26.32420842
W        6.75954150       4.77966570      26.32420842
W        6.75954150       3.18644380      28.57734581
W        4.50636100       4.77966570      28.57734581
W        9.01272200       3.18644380      30.83044041
W        6.75954150       4.77966570      30.83044041
W        6.75954150       3.18644380      33.08348344
W        4.50636100       4.77966570      33.08348344
W        4.50636100       3.18644380      35.33647973
W        6.75954150       4.77966570      35.33647973
W        6.75954150       3.18644380      37.58954217
W        4.50636100       4.77966570      37.58954217
W        4.50636100       6.37288760       1.12655590
W        6.75954150       7.96610950       1.12655590
W        6.75954150       6.37288760       3.37961833
W        9.01272200       7.96610950       3.37961833
W        4.50636100       6.37288760       5.63261462
W        6.75954150       7.96610950       5.63261462
W        6.75954150       6.37288760       7.88565765
W        9.01272200       7.96610950       7.88565765
W        4.50636100       6.37288760      10.13875225
W        6.75954150       7.96610950      10.13875225
W        6.75954150       6.37288760      12.39188965
W        9.01272200       7.96610950      12.39188965
W        9.01272200       6.37288760      14.64501694
W        6.75954150       7.96610950      14.64501694
W        6.75954150       6.37288760      16.89815510
W        4.50636100       7.96610950      16.89815510
W        4.50636100       6.37288760      21.81794297
W        6.75954150       7.96610950      21.81794297
W        6.75954150       6.37288760      24.07108112
W        4.50636100       7.96610950      24.07108112
W        4.50636100       6.37288760      26.32420842
W        6.75954150       7.96610950      26.32420842
W        6.75954150       6.37288760      28.57734581
W        4.50636100       7.96610950      28.57734581
W        9.01272200       6.37288760      30.83044041
W        6.75954150       7.96610950      30.83044041
W        6.75954150       6.37288760      33.08348344
W        4.50636100       7.96610950      33.08348344
W        4.50636100       6.37288760      35.33647973
W        6.75954150       7.96610950      35.33647973
W        6.75954150       6.37288760      37.58954217
W        4.50636100       7.96610950      37.58954217
W        9.01272200      -0.00000000       1.12655590
W       11.26590250       1.59322190       1.12655590
W       11.26590250       0.00000000       3.37961833
W       13.51908301       1.59322190       3.37961833
W        9.01272200      -0.00000000       5.63261462
W       11.26590250       1.59322190       5.63261462
W       11.26590250      -0.00000000       7.88565765
W       13.51908301       1.59322190       7.88565765
W        9.01272200      -0.00000000      10.13875225
W       11.26590250       1.59322190      10.13875225
W       11.26590250       0.00000000      12.39188965
W       13.51908301       1.59322190      12.39188965
W       13.51908301      -0.00000000      14.64501694
W       11.26590250       1.59322190      14.64501694
W       11.26590250      -0.00000000      16.89815510
W        9.01272200       1.59322190      16.89815510
W        9.01272200      -0.00000000      21.81794297
W       11.26590250       1.59322190      21.81794297
W       11.26590250       0.00000000      24.07108112
W        9.01272200       1.59322190      24.07108112
W        9.01272200       0.00000000      26.32420842
W       11.26590250       1.59322190      26.32420842
W       11.26590250       0.00000000      28.57734581
W        9.01272200       1.59322190      28.57734581
W       13.51908301       0.00000000      30.83044041
W       11.26590250       1.59322190      30.83044041
W       11.26590250      -0.00000000      33.08348344
W        9.01272200       1.59322190      33.08348344
W        9.01272200      -0.00000000      35.33647973
W       11.26590250       1.59322190      35.33647973
W       11.26590250      -0.00000000      37.58954217
W        9.01272200       1.59322190      37.58954217
W        9.01272200       3.18644380       1.12655590
W       11.26590250       4.77966570       1.12655590
W       11.26590250       3.18644380       3.37961833
W       13.51908301       4.77966570       3.37961833
W        9.01272200       3.18644380       5.63261462
W       11.26590250       4.77966570       5.63261462
W       11.26590250       3.18644380       7.88565765
W       13.51908301       4.77966570       7.88565765
W        9.01272200       3.18644380      10.13875225
W       11.26590250       4.77966570      10.13875225
W       11.26590250       3.18644380      12.39188965
W       13.51908301       4.77966570      12.39188965
W       13.51908301       3.18644380      14.64501694
W       11.26590250       4.77966570      14.64501694
W       11.26590250       3.18644380      16.89815510
W        9.01272200       4.77966570      16.89815510
W        9.01272200       3.18644380      21.81794297
W       11.26590250       4.77966570      21.81794297
W       11.26590250       3.18644380      24.07108112
W        9.01272200       4.77966570      24.07108112
W        9.01272200       3.18644380      26.32420842
W       11.26590250       4.77966570      26.32420842
W       11.26590250       3.18644380      28.57734581
W        9.01272200       4.77966570      28.57734581
W       13.51908301       3.18644380      30.83044041
W       11.26590250       4.77966570      30.83044041
W       11.26590250       3.18644380      33.08348344
W        9.01272200       4.77966570      33.08348344
W        9.01272200       3.18644380      35.33647973
W       11.26590250       4.77966570      35.33647973
W       11.26590250       3.18644380      37.58954217
W        9.01272200       4.77966570      37.58954217
W        9.01272200       6.37288760       1.12655590
W       11.26590250       7.96610950       1.12655590
W       11.26590250       6.37288760       3.37961833
W       13.51908301       7.96610950       3.37961833
W        9.01272200       6.37288760       5.63261462
W       11.26590250       7.96610950       5.63261462
W       11.26590250       6.37288760       7.88565765
W       13.51908301       7.96610950       7.88565765
W        9.01272200       6.37288760      10.13875225
W       11.26590250       7.96610950      10.13875225
W       11.26590250       6.37288760      12.39188965
W       13.51908301       7.96610950      12.39188965
W       13.51908301       6.37288760      14.64501694
W       11.26590250       7.96610950      14.64501694
W       11.26590250       6.37288760      16.89815510
W        9.01272200       7.96610950      16.89815510
W        9.01272200       6.37288760      21.81794297
W       11.26590250       7.96610950      21.81794297
W       11.26590250       6.37288760      24.07108112
W        9.01272200       7.96610950      24.07108112
W        9.01272200       6.37288760      26.32420842
W       11.26590250       7.96610950      26.32420842
W       11.26590250       6.37288760      28.57734581
W        9.01272200       7.96610950      28.57734581
W       13.51908301       6.37288760      30.83044041
W       11.26590250       7.96610950      30.83044041
W       11.26590250       6.37288760      33.08348344
W        9.01272200       7.96610950      33.08348344
W        9.01272200       6.37288760      35.33647973
W       11.26590250       7.96610950      35.33647973
W       11.26590250       6.37288760      37.58954217
W        9.01272200       7.96610950      37.58954217
288
Lattice="13.519083005276505 3.9762680028551066e-17 -4.0430281816947754e-17 2.832107032207403e-17 9.559331404516637 -2.7421228983415876e-17 -9.765279892702126e-17 -9.449974793418939e-17 38.81866216776052" Properties=species:S:1:pos:R:3 vacuum_gap_Ang=2.769230769230769 frame_index=27 pbc="T T T"
W       -0.00000000       0.00000000       1.12655590
W        2.25318050       1.59322190       1.12655590
W        2.25318050       0.00000000       3.37961833
W        4.50636100       1.59322190       3.37961833
W       -0.00000000       0.00000000       5.63261462
W        2.25318050       1.59322190       5.63261462
W        2.25318050      -0.00000000       7.88565765
W        4.50636100       1.59322190       7.88565765
W       -0.00000000       0.00000000      10.13875225
W        2.25318050       1.59322190      10.13875225
W        2.25318050      -0.00000000      12.39188965
W        4.50636100       1.59322190      12.39188965
W        4.50636100      -0.00000000      14.64501694
W        2.25318050       1.59322190      14.64501694
W        2.25318050       0.00000000      16.89815510
W       -0.00000000       1.59322190      16.89815510
W       -0.00000000       0.00000000      21.92050707
W        2.25318050       1.59322190      21.92050707
W        2.25318050      -0.00000000      24.17364523
W       -0.00000000       1.59322190      24.17364523
W       -0.00000000      -0.00000000      26.42677252
W        2.25318050       1.59322190      26.42677252
W        2.25318050       0.00000000      28.67990992
W       -0.00000000       1.59322190      28.67990992
W        4.50636100      -0.00000000      30.93300452
W        2.25318050       1.59322190      30.93300452
W        2.25318050      -0.00000000      33.18604754
W       -0.00000000       1.59322190      33.18604754
W       -0.00000000      -0.00000000      35.43904383
W        2.25318050       1.59322190      35.43904383
W        2.25318050       0.00000000      37.69210627
W       -0.00000000       1.59322190      37.69210627
W       -0.00000000       3.18644380       1.12655590
W        2.25318050       4.77966570       1.12655590
W        2.25318050       3.18644380       3.37961833
W        4.50636100       4.77966570       3.37961833
W       -0.00000000       3.18644380       5.63261462
W        2.25318050       4.77966570       5.63261462
W        2.25318050       3.18644380       7.88565765
W        4.50636100       4.77966570       7.88565765
W       -0.00000000       3.18644380      10.13875225
W        2.25318050       4.77966570      10.13875225
W        2.25318050       3.18644380      12.39188965
W        4.50636100       4.77966570      12.39188965
W        4.50636100       3.18644380      14.64501694
W        2.25318050       4.77966570      14.64501694
W        2.25318050       3.18644380      16.89815510
W       -0.00000000       4.77966570      16.89815510
W       -0.00000000       3.18644380      21.92050707
W        2.25318050       4.77966570      21.92050707
W        2.25318050       3.18644380      24.17364523
W       -0.00000000       4.77966570      24.17364523
W       -0.00000000       3.18644380      26.42677252
W        2.25318050       4.77966570      26.42677252
W        2.25318050       3.18644380      28.67990992
W       -0.00000000       4.77966570      28.67990992
W        4.50636100       3.18644380      30.93300452
W        2.25318050       4.77966570      30.93300452
W        2.25318050       3.18644380      33.18604754
W       -0.00000000       4.77966570      33.18604754
W       -0.00000000       3.18644380      35.43904383
W        2.25318050       4.77966570      35.43904383
W        2.25318050       3.18644380      37.69210627
W       -0.00000000       4.77966570      37.69210627
W       -0.00000000       6.37288760       1.12655590
W        2.25318050       7.96610950       1.12655590
W        2.25318050       6.37288760       3.37961833
W        4.50636100       7.96610950       3.37961833
W       -0.00000000       6.37288760       5.63261462
W        2.25318050       7.96610950       5.63261462
W        2.25318050       6.37288760       7.88565765
W        4.50636100       7.96610950       7.88565765
W        0.00000000       6.37288760      10.13875225
W        2.25318050       7.96610950      10.13875225
W        2.25318050       6.37288760      12.39188965
W        4.50636100       7.96610950      12.39188965
W        4.50636100       6.37288760      14.64501694
W        2.25318050       7.96610950      14.64501694
W        2.25318050       6.37288760      16.89815510
W       -0.00000000       7.96610950      16.89815510
W       -0.00000000       6.37288760      21.92050707
W        2.25318050       7.96610950      21.92050707
W        2.25318050       6.37288760      24.17364523
W       -0.00000000       7.96610950      24.17364523
W       -0.00000000       6.37288760      26.42677252
W        2.25318050       7.96610950      26.42677252
W        2.25318050       6.37288760      28.67990992
W       -0.00000000       7.96610950      28.67990992
W        4.50636100       6.37288760      30.93300452
W        2.25318050       7.96610950      30.93300452
W        2.25318050       6.37288760      33.18604754
W       -0.00000000       7.96610950      33.18604754
W       -0.00000000       6.37288760      35.43904383
W        2.25318050       7.96610950      35.43904383
W        2.25318050       6.37288760      37.69210627
W       -0.00000000       7.96610950      37.69210627
W        4.50636100      -0.00000000       1.12655590
W        6.75954150       1.59322190       1.12655590
W        6.75954150       0.00000000       3.37961833
W        9.01272200       1.59322190       3.37961833
W        4.50636100       0.00000000       5.63261462
W        6.75954150       1.59322190       5.63261462
W        6.75954150      -0.00000000       7.88565765
W        9.01272200       1.59322190       7.88565765
W        4.50636100      -0.00000000      10.13875225
W        6.75954150       1.59322190      10.13875225
W        6.75954150       0.00000000      12.39188965
W        9.01272200       1.59322190      12.39188965
W        9.01272200      -0.00000000      14.64501694
W        6.75954150       1.59322190      14.64501694
W        6.75954150       0.00000000      16.89815510
W        4.50636100       1.59322190      16.89815510
W        4.50636100      -0.00000000      21.92050707
W        6.75954150       1.59322190      21.92050707
W        6.75954150      -0.00000000      24.17364523
W        4.50636100       1.59322190      24.17364523
W        4.50636100       0.00000000      26.42677252
W        6.75954150       1.59322190      26.42677252
W        6.75954150       0.00000000      28.67990992
W        4.50636100       1.59322190      28.67990992
W        9.01272200      -0.00000000      30.93300452
W        6.75954150       1.59322190      30.93300452
W        6.75954150      -0.00000000      33.18604754
W        4.50636100       1.59322190      33.18604754
W        4.50636100       0.00000000      35.43904383
W        6.75954150       1.59322190      35.43904383
W        6.75954150      -0.00000000      37.69210627
W        4.50636100       1.59322190      37.69210627
W        4.50636100       3.18644380       1.12655590
W        6.75954150       4.77966570       1.12655590
W        6.75954150       3.18644380       3.37961833
W        9.01272200       4.77966570       3.37961833
W        4.50636100       3.18644380       5.63261462
W        6.75954150       4.77966570       5.63261462
W        6.75954150       3.18644380       7.88565765
W        9.01272200       4.77966570       7.88565765
W        4.50636100       3.18644380      10.13875225
W        6.75954150       4.77966570      10.13875225
W        6.75954150       3.18644380      12.39188965
W        9.01272200       4.77966570      12.39188965
W        9.01272200       3.18644380      14.64501694
W        6.75954150       4.77966570      14.64501694
W        6.75954150       3.18644380      16.89815510
W        4.50636100       4.77966570      16.89815510
W        4.50636100       3.18644380      21.92050707
W        6.75954150       4.77966570      21.92050707
W        6.75954150       3.18644380      24.17364523
W        4.50636100       4.77966570      24.17364523
W        4.50636100       3.18644380      26.42677252
W        6.75954150       4.77966570      26.42677252
W        6.75954150       3.18644380      28.67990992
W        4.50636100       4.77966570      28.67990992
W        9.01272200       3.18644380      30.93300452
W        6.75954150       4.77966570      30.93300452
W        6.75954150       3.18644380      33.18604754
W        4.50636100       4.77966570      33.18604754
W        4.50636100       3.18644380      35.43904383
W        6.75954150       4.77966570      35.43904383
W        6.75954150       3.18644380      37.69210627
W        4.50636100       4.77966570      37.69210627
W        4.50636100       6.37288760       1.12655590
W        6.75954150       7.96610950       1.12655590
W        6.75954150       6.37288760       3.37961833
W        9.01272200       7.96610950       3.37961833
W        4.50636100       6.37288760       5.63261462
W        6.75954150       7.96610950       5.63261462
W        6.75954150       6.37288760       7.88565765
W        9.01272200       7.96610950       7.88565765
W        4.50636100       6.37288760      10.13875225
W        6.75954150       7.96610950      10.13875225
W        6.75954150       6.37288760      12.39188965
W        9.01272200       7.96610950      12.39188965
W        9.01272200       6.37288760      14.64501694
W        6.75954150       7.96610950      14.64501694
W        6.75954150       6.37288760      16.89815510
W        4.50636100       7.96610950      16.89815510
W        4.50636100       6.37288760      21.92050707
W        6.75954150       7.96610950      21.92050707
W        6.75954150       6.37288760      24.17364523
W        4.50636100       7.96610950      24.17364523
W        4.50636100       6.37288760      26.42677252
W        6.75954150       7.96610950      26.42677252
W        6.75954150       6.37288760      28.67990992
W        4.50636100       7.96610950      28.67990992
W        9.01272200       6.37288760      30.93300452
W        6.75954150       7.96610950      30.93300452
W        6.75954150       6.37288760      33.18604754
W        4.50636100       7.96610950      33.18604754
W        4.50636100       6.37288760      35.43904383
W        6.75954150       7.96610950      35.43904383
W        6.75954150       6.37288760      37.69210627
W        4.50636100       7.96610950      37.69210627
W        9.01272200      -0.00000000       1.12655590
W       11.26590250       1.59322190       1.12655590
W       11.26590250       0.00000000       3.37961833
W       13.51908301       1.59322190       3.37961833
W        9.01272200      -0.00000000       5.63261462
W       11.26590250       1.59322190       5.63261462
W       11.26590250      -0.00000000       7.88565765
W       13.51908301       1.59322190       7.88565765
W        9.01272200      -0.00000000      10.13875225
W       11.26590250       1.59322190      10.13875225
W       11.26590250       0.00000000      12.39188965
W       13.51908301       1.59322190      12.39188965
W       13.51908301      -0.00000000      14.64501694
W       11.26590250       1.59322190      14.64501694
W       11.26590250      -0.00000000      16.89815510
W        9.01272200       1.59322190      16.89815510
W        9.01272200      -0.00000000      21.92050707
W       11.26590250       1.59322190      21.92050707
W       11.26590250       0.00000000      24.17364523
W        9.01272200       1.59322190      24.17364523
W        9.01272200       0.00000000      26.42677252
W       11.26590250       1.59322190      26.42677252
W       11.26590250       0.00000000      28.67990992
W        9.01272200       1.59322190      28.67990992
W       13.51908301       0.00000000      30.93300452
W       11.26590250       1.59322190      30.93300452
W       11.26590250      -0.00000000      33.18604754
W        9.01272200       1.59322190      33.18604754
W        9.01272200      -0.00000000      35.43904383
W       11.26590250       1.59322190      35.43904383
W       11.26590250      -0.00000000      37.69210627
W        9.01272200       1.59322190      37.69210627
W        9.01272200       3.18644380       1.12655590
W       11.26590250       4.77966570       1.12655590
W       11.26590250       3.18644380       3.37961833
W       13.51908301       4.77966570       3.37961833
W        9.01272200       3.18644380       5.63261462
W       11.26590250       4.77966570       5.63261462
W       11.26590250       3.18644380       7.88565765
W       13.51908301       4.77966570       7.88565765
W        9.01272200       3.18644380      10.13875225
W       11.26590250       4.77966570      10.13875225
W       11.26590250       3.18644380      12.39188965
W       13.51908301       4.77966570      12.39188965
W       13.51908301       3.18644380      14.64501694
W       11.26590250       4.77966570      14.64501694
W       11.26590250       3.18644380      16.89815510
W        9.01272200       4.77966570      16.89815510
W        9.01272200       3.18644380      21.92050707
W       11.26590250       4.77966570      21.92050707
W       11.26590250       3.18644380      24.17364523
W        9.01272200       4.77966570      24.17364523
W        9.01272200       3.18644380      26.42677252
W       11.26590250       4.77966570      26.42677252
W       11.26590250       3.18644380      28.67990992
W        9.01272200       4.77966570      28.67990992
W       13.51908301       3.18644380      30.93300452
W       11.26590250       4.77966570      30.93300452
W       11.26590250       3.18644380      33.18604754
W        9.01272200       4.77966570      33.18604754
W        9.01272200       3.18644380      35.43904383
W       11.26590250       4.77966570      35.43904383
W       11.26590250       3.18644380      37.69210627
W        9.01272200       4.77966570      37.69210627
W        9.01272200       6.37288760       1.12655590
W       11.26590250       7.96610950       1.12655590
W       11.26590250       6.37288760       3.37961833
W       13.51908301       7.96610950       3.37961833
W        9.01272200       6.37288760       5.63261462
W       11.26590250       7.96610950       5.63261462
W       11.26590250       6.37288760       7.88565765
W       13.51908301       7.96610950       7.88565765
W        9.01272200       6.37288760      10.13875225
W       11.26590250       7.96610950      10.13875225
W       11.26590250       6.37288760      12.39188965
W       13.51908301       7.96610950      12.39188965
W       13.51908301       6.37288760      14.64501694
W       11.26590250       7.96610950      14.64501694
W       11.26590250       6.37288760      16.89815510
W        9.01272200       7.96610950      16.89815510
W        9.01272200       6.37288760      21.92050707
W       11.26590250       7.96610950      21.92050707
W       11.26590250       6.37288760      24.17364523
W        9.01272200       7.96610950      24.17364523
W        9.01272200       6.37288760      26.42677252
W       11.26590250       7.96610950      26.42677252
W       11.26590250       6.37288760      28.67990992
W        9.01272200       7.96610950      28.67990992
W       13.51908301       6.37288760      30.93300452
W       11.26590250       7.96610950      30.93300452
W       11.26590250       6.37288760      33.18604754
W        9.01272200       7.96610950      33.18604754
W        9.01272200       6.37288760      35.43904383
W       11.26590250       7.96610950      35.43904383
W       11.26590250       6.37288760      37.69210627
W        9.01272200       7.96610950      37.69210627
288
Lattice="13.519083005276505 3.9762680028551066e-17 -4.0430281816947754e-17 2.832107032207403e-17 9.559331404516637 -2.7421228983415876e-17 -9.765279892702126e-17 -9.449974793418939e-17 38.921226270324624" Properties=species:S:1:pos:R:3 vacuum_gap_Ang=2.871794871794872 frame_index=28 pbc="T T T"
W       -0.00000000       0.00000000       1.12655590
W        2.25318050       1.59322190       1.12655590
W        2.25318050       0.00000000       3.37961833
W        4.50636100       1.59322190       3.37961833
W       -0.00000000       0.00000000       5.63261462
W        2.25318050       1.59322190       5.63261462
W        2.25318050      -0.00000000       7.88565765
W        4.50636100       1.59322190       7.88565765
W       -0.00000000       0.00000000      10.13875225
W        2.25318050       1.59322190      10.13875225
W        2.25318050      -0.00000000      12.39188965
W        4.50636100       1.59322190      12.39188965
W        4.50636100      -0.00000000      14.64501694
W        2.25318050       1.59322190      14.64501694
W        2.25318050       0.00000000      16.89815510
W       -0.00000000       1.59322190      16.89815510
W       -0.00000000       0.00000000      22.02307117
W        2.25318050       1.59322190      22.02307117
W        2.25318050      -0.00000000      24.27620933
W       -0.00000000       1.59322190      24.27620933
W       -0.00000000      -0.00000000      26.52933662
W        2.25318050       1.59322190      26.52933662
W        2.25318050       0.00000000      28.78247402
W       -0.00000000       1.59322190      28.78247402
W        4.50636100      -0.00000000      31.03556862
W        2.25318050       1.59322190      31.03556862
W        2.25318050      -0.00000000      33.28861165
W       -0.00000000       1.59322190      33.28861165
W       -0.00000000      -0.00000000      35.54160794
W        2.25318050       1.59322190      35.54160794
W        2.25318050       0.00000000      37.79467037
W       -0.00000000       1.59322190      37.79467037
W       -0.00000000       3.18644380       1.12655590
W        2.25318050       4.77966570       1.12655590
W        2.25318050       3.18644380       3.37961833
W        4.50636100       4.77966570       3.37961833
W       -0.00000000       3.18644380       5.63261462
W        2.25318050       4.77966570       5.63261462
W        2.25318050       3.18644380       7.88565765
W        4.50636100       4.77966570       7.88565765
W       -0.00000000       3.18644380      10.13875225
W        2.25318050       4.77966570      10.13875225
W        2.25318050       3.18644380      12.39188965
W        4.50636100       4.77966570      12.39188965
W        4.50636100       3.18644380      14.64501694
W        2.25318050       4.77966570      14.64501694
W        2.25318050       3.18644380      16.89815510
W       -0.00000000       4.77966570      16.89815510
W       -0.00000000       3.18644380      22.02307117
W        2.25318050       4.77966570      22.02307117
W        2.25318050       3.18644380      24.27620933
W       -0.00000000       4.77966570      24.27620933
W       -0.00000000       3.18644380      26.52933662
W        2.25318050       4.77966570      26.52933662
W        2.25318050       3.18644380      28.78247402
W       -0.00000000       4.77966570      28.78247402
W        4.50636100       3.18644380      31.03556862
W        2.25318050       4.77966570      31.03556862
W        2.25318050       3.18644380      33.28861165
W       -0.00000000       4.77966570      33.28861165
W       -0.00000000       3.18644380      35.54160794
W        2.25318050       4.77966570      35.54160794
W        2.25318050       3.18644380      37.79467037
W       -0.00000000       4.77966570      37.79467037
W       -0.00000000       6.37288760       1.12655590
W        2.25318050       7.96610950       1.12655590
W        2.25318050       6.37288760       3.37961833
W        4.50636100       7.96610950       3.37961833
W       -0.00000000       6.37288760       5.63261462
W        2.25318050       7.96610950       5.63261462
W        2.25318050       6.37288760       7.88565765
W        4.50636100       7.96610950       7.88565765
W        0.00000000       6.37288760      10.13875225
W        2.25318050       7.96610950      10.13875225
W        2.25318050       6.37288760      12.39188965
W        4.50636100       7.96610950      12.39188965
W        4.50636100       6.37288760      14.64501694
W        2.25318050       7.96610950      14.64501694
W        2.25318050       6.37288760      16.89815510
W       -0.00000000       7.96610950      16.89815510
W       -0.00000000       6.37288760      22.02307117
W        2.25318050       7.96610950      22.02307117
W        2.25318050       6.37288760      24.27620933
W       -0.00000000       7.96610950      24.27620933
W       -0.00000000       6.37288760      26.52933662
W        2.25318050       7.96610950      26.52933662
W        2.25318050       6.37288760      28.78247402
W       -0.00000000       7.96610950      28.78247402
W        4.50636100       6.37288760      31.03556862
W        2.25318050       7.96610950      31.03556862
W        2.25318050       6.37288760      33.28861165
W       -0.00000000       7.96610950      33.28861165
W       -0.00000000       6.37288760      35.54160794
W        2.25318050       7.96610950      35.54160794
W        2.25318050       6.37288760      37.79467037
W       -0.00000000       7.96610950      37.79467037
W        4.50636100      -0.00000000       1.12655590
W        6.75954150       1.59322190       1.12655590
W        6.75954150       0.00000000       3.37961833
W        9.01272200       1.59322190       3.37961833
W        4.50636100       0.00000000       5.63261462
W        6.75954150       1.59322190       5.63261462
W        6.75954150      -0.00000000       7.88565765
W        9.01272200       1.59322190       7.88565765
W        4.50636100      -0.00000000      10.13875225
W        6.75954150       1.59322190      10.13875225
W        6.75954150       0.00000000      12.39188965
W        9.01272200       1.59322190      12.39188965
W        9.01272200      -0.00000000      14.64501694
W        6.75954150       1.59322190      14.64501694
W        6.75954150       0.00000000      16.89815510
W        4.50636100       1.59322190      16.89815510
W        4.50636100      -0.00000000      22.02307117
W        6.75954150       1.59322190      22.02307117
W        6.75954150      -0.00000000      24.27620933
W        4.50636100       1.59322190      24.27620933
W        4.50636100       0.00000000      26.52933662
W        6.75954150       1.59322190      26.52933662
W        6.75954150       0.00000000      28.78247402
W        4.50636100       1.59322190      28.78247402
W        9.01272200      -0.00000000      31.03556862
W        6.75954150       1.59322190      31.03556862
W        6.75954150      -0.00000000      33.28861165
W        4.50636100       1.59322190      33.28861165
W        4.50636100       0.00000000      35.54160794
W        6.75954150       1.59322190      35.54160794
W        6.75954150      -0.00000000      37.79467037
W        4.50636100       1.59322190      37.79467037
W        4.50636100       3.18644380       1.12655590
W        6.75954150       4.77966570       1.12655590
W        6.75954150       3.18644380       3.37961833
W        9.01272200       4.77966570       3.37961833
W        4.50636100       3.18644380       5.63261462
W        6.75954150       4.77966570       5.63261462
W        6.75954150       3.18644380       7.88565765
W        9.01272200       4.77966570       7.88565765
W        4.50636100       3.18644380      10.13875225
W        6.75954150       4.77966570      10.13875225
W        6.75954150       3.18644380      12.39188965
W        9.01272200       4.77966570      12.39188965
W        9.01272200       3.18644380      14.64501694
W        6.75954150       4.77966570      14.64501694
W        6.75954150       3.18644380      16.89815510
W        4.50636100       4.77966570      16.89815510
W        4.50636100       3.18644380      22.02307117
W        6.75954150       4.77966570      22.02307117
W        6.75954150       3.18644380      24.27620933
W        4.50636100       4.77966570      24.27620933
W        4.50636100       3.18644380      26.52933662
W        6.75954150       4.77966570      26.52933662
W        6.75954150       3.18644380      28.78247402
W        4.50636100       4.77966570      28.78247402
W        9.01272200       3.18644380      31.03556862
W        6.75954150       4.77966570      31.03556862
W        6.75954150       3.18644380      33.28861165
W        4.50636100       4.77966570      33.28861165
W        4.50636100       3.18644380      35.54160794
W        6.75954150       4.77966570      35.54160794
W        6.75954150       3.18644380      37.79467037
W        4.50636100       4.77966570      37.79467037
W        4.50636100       6.37288760       1.12655590
W        6.75954150       7.96610950       1.12655590
W        6.75954150       6.37288760       3.37961833
W        9.01272200       7.96610950       3.37961833
W        4.50636100       6.37288760       5.63261462
W        6.75954150       7.96610950       5.63261462
W        6.75954150       6.37288760       7.88565765
W        9.01272200       7.96610950       7.88565765
W        4.50636100       6.37288760      10.13875225
W        6.75954150       7.96610950      10.13875225
W        6.75954150       6.37288760      12.39188965
W        9.01272200       7.96610950      12.39188965
W        9.01272200       6.37288760      14.64501694
W        6.75954150       7.96610950      14.64501694
W        6.75954150       6.37288760      16.89815510
W        4.50636100       7.96610950      16.89815510
W        4.50636100       6.37288760      22.02307117
W        6.75954150       7.96610950      22.02307117
W        6.75954150       6.37288760      24.27620933
W        4.50636100       7.96610950      24.27620933
W        4.50636100       6.37288760      26.52933662
W        6.75954150       7.96610950      26.52933662
W        6.75954150       6.37288760      28.78247402
W        4.50636100       7.96610950      28.78247402
W        9.01272200       6.37288760      31.03556862
W        6.75954150       7.96610950      31.03556862
W        6.75954150       6.37288760      33.28861165
W        4.50636100       7.96610950      33.28861165
W        4.50636100       6.37288760      35.54160794
W        6.75954150       7.96610950      35.54160794
W        6.75954150       6.37288760      37.79467037
W        4.50636100       7.96610950      37.79467037
W        9.01272200      -0.00000000       1.12655590
W       11.26590250       1.59322190       1.12655590
W       11.26590250       0.00000000       3.37961833
W       13.51908301       1.59322190       3.37961833
W        9.01272200      -0.00000000       5.63261462
W       11.26590250       1.59322190       5.63261462
W       11.26590250      -0.00000000       7.88565765
W       13.51908301       1.59322190       7.88565765
W        9.01272200      -0.00000000      10.13875225
W       11.26590250       1.59322190      10.13875225
W       11.26590250       0.00000000      12.39188965
W       13.51908301       1.59322190      12.39188965
W       13.51908301      -0.00000000      14.64501694
W       11.26590250       1.59322190      14.64501694
W       11.26590250      -0.00000000      16.89815510
W        9.01272200       1.59322190      16.89815510
W        9.01272200      -0.00000000      22.02307117
W       11.26590250       1.59322190      22.02307117
W       11.26590250       0.00000000      24.27620933
W        9.01272200       1.59322190      24.27620933
W        9.01272200       0.00000000      26.52933662
W       11.26590250       1.59322190      26.52933662
W       11.26590250       0.00000000      28.78247402
W        9.01272200       1.59322190      28.78247402
W       13.51908301       0.00000000      31.03556862
W       11.26590250       1.59322190      31.03556862
W       11.26590250      -0.00000000      33.28861165
W        9.01272200       1.59322190      33.28861165
W        9.01272200      -0.00000000      35.54160794
W       11.26590250       1.59322190      35.54160794
W       11.26590250      -0.00000000      37.79467037
W        9.01272200       1.59322190      37.79467037
W        9.01272200       3.18644380       1.12655590
W       11.26590250       4.77966570       1.12655590
W       11.26590250       3.18644380       3.37961833
W       13.51908301       4.77966570       3.37961833
W        9.01272200       3.18644380       5.63261462
W       11.26590250       4.77966570       5.63261462
W       11.26590250       3.18644380       7.88565765
W       13.51908301       4.77966570       7.88565765
W        9.01272200       3.18644380      10.13875225
W       11.26590250       4.77966570      10.13875225
W       11.26590250       3.18644380      12.39188965
W       13.51908301       4.77966570      12.39188965
W       13.51908301       3.18644380      14.64501694
W       11.26590250       4.77966570      14.64501694
W       11.26590250       3.18644380      16.89815510
W        9.01272200       4.77966570      16.89815510
W        9.01272200       3.18644380      22.02307117
W       11.26590250       4.77966570      22.02307117
W       11.26590250       3.18644380      24.27620933
W        9.01272200       4.77966570      24.27620933
W        9.01272200       3.18644380      26.52933662
W       11.26590250       4.77966570      26.52933662
W       11.26590250       3.18644380      28.78247402
W        9.01272200       4.77966570      28.78247402
W       13.51908301       3.18644380      31.03556862
W       11.26590250       4.77966570      31.03556862
W       11.26590250       3.18644380      33.28861165
W        9.01272200       4.77966570      33.28861165
W        9.01272200       3.18644380      35.54160794
W       11.26590250       4.77966570      35.54160794
W       11.26590250       3.18644380      37.79467037
W        9.01272200       4.77966570      37.79467037
W        9.01272200       6.37288760       1.12655590
W       11.26590250       7.96610950       1.12655590
W       11.26590250       6.37288760       3.37961833
W       13.51908301       7.96610950       3.37961833
W        9.01272200       6.37288760       5.63261462
W       11.26590250       7.96610950       5.63261462
W       11.26590250       6.37288760       7.88565765
W       13.51908301       7.96610950       7.88565765
W        9.01272200       6.37288760      10.13875225
W       11.26590250       7.96610950      10.13875225
W       11.26590250       6.37288760      12.39188965
W       13.51908301       7.96610950      12.39188965
W       13.51908301       6.37288760      14.64501694
W       11.26590250       7.96610950      14.64501694
W       11.26590250       6.37288760      16.89815510
W        9.01272200       7.96610950      16.89815510
W        9.01272200       6.37288760      22.02307117
W       11.26590250       7.96610950      22.02307117
W       11.26590250       6.37288760      24.27620933
W        9.01272200       7.96610950      24.27620933
W        9.01272200       6.37288760      26.52933662
W       11.26590250       7.96610950      26.52933662
W       11.26590250       6.37288760      28.78247402
W        9.01272200       7.96610950      28.78247402
W       13.51908301       6.37288760      31.03556862
W       11.26590250       7.96610950      31.03556862
W       11.26590250       6.37288760      33.28861165
W        9.01272200       7.96610950      33.28861165
W        9.01272200       6.37288760      35.54160794
W       11.26590250       7.96610950      35.54160794
W       11.26590250       6.37288760      37.79467037
W        9.01272200       7.96610950      37.79467037
288
Lattice="13.519083005276505 3.9762680028551066e-17 -4.0430281816947754e-17 2.832107032207403e-17 9.559331404516637 -2.7421228983415876e-17 -9.765279892702126e-17 -9.449974793418939e-17 39.023790372888726" Properties=species:S:1:pos:R:3 vacuum_gap_Ang=2.9743589743589745 frame_index=29 pbc="T T T"
W       -0.00000000       0.00000000       1.12655590
W        2.25318050       1.59322190       1.12655590
W        2.25318050       0.00000000       3.37961833
W        4.50636100       1.59322190       3.37961833
W       -0.00000000       0.00000000       5.63261462
W        2.25318050       1.59322190       5.63261462
W        2.25318050      -0.00000000       7.88565765
W        4.50636100       1.59322190       7.88565765
W       -0.00000000       0.00000000      10.13875225
W        2.25318050       1.59322190      10.13875225
W        2.25318050      -0.00000000      12.39188965
W        4.50636100       1.59322190      12.39188965
W        4.50636100      -0.00000000      14.64501694
W        2.25318050       1.59322190      14.64501694
W        2.25318050       0.00000000      16.89815510
W       -0.00000000       1.59322190      16.89815510
W       -0.00000000       0.00000000      22.12563528
W        2.25318050       1.59322190      22.12563528
W        2.25318050      -0.00000000      24.37877343
W       -0.00000000       1.59322190      24.37877343
W       -0.00000000      -0.00000000      26.63190072
W        2.25318050       1.59322190      26.63190072
W        2.25318050       0.00000000      28.88503812
W       -0.00000000       1.59322190      28.88503812
W        4.50636100      -0.00000000      31.13813272
W        2.25318050       1.59322190      31.13813272
W        2.25318050      -0.00000000      33.39117575
W       -0.00000000       1.59322190      33.39117575
W       -0.00000000      -0.00000000      35.64417204
W        2.25318050       1.59322190      35.64417204
W        2.25318050       0.00000000      37.89723448
W       -0.00000000       1.59322190      37.89723448
W       -0.00000000       3.18644380       1.12655590
W        2.25318050       4.77966570       1.12655590
W        2.25318050       3.18644380       3.37961833
W        4.50636100       4.77966570       3.37961833
W       -0.00000000       3.18644380       5.63261462
W        2.25318050       4.77966570       5.63261462
W        2.25318050       3.18644380       7.88565765
W        4.50636100       4.77966570       7.88565765
W       -0.00000000       3.18644380      10.13875225
W        2.25318050       4.77966570      10.13875225
W        2.25318050       3.18644380      12.39188965
W        4.50636100       4.77966570      12.39188965
W        4.50636100       3.18644380      14.64501694
W        2.25318050       4.77966570      14.64501694
W        2.25318050       3.18644380      16.89815510
W       -0.00000000       4.77966570      16.89815510
W       -0.00000000       3.18644380      22.12563528
W        2.25318050       4.77966570      22.12563528
W        2.25318050       3.18644380      24.37877343
W       -0.00000000       4.77966570      24.37877343
W       -0.00000000       3.18644380      26.63190072
W        2.25318050       4.77966570      26.63190072
W        2.25318050       3.18644380      28.88503812
W       -0.00000000       4.77966570      28.88503812
W        4.50636100       3.18644380      31.13813272
W        2.25318050       4.77966570      31.13813272
W        2.25318050       3.18644380      33.39117575
W       -0.00000000       4.77966570      33.39117575
W       -0.00000000       3.18644380      35.64417204
W        2.25318050       4.77966570      35.64417204
W        2.25318050       3.18644380      37.89723448
W       -0.00000000       4.77966570      37.89723448
W       -0.00000000       6.37288760       1.12655590
W        2.25318050       7.96610950       1.12655590
W        2.25318050       6.37288760       3.37961833
W        4.50636100       7.96610950       3.37961833
W       -0.00000000       6.37288760       5.63261462
W        2.25318050       7.96610950       5.63261462
W        2.25318050       6.37288760       7.88565765
W        4.50636100       7.96610950       7.88565765
W        0.00000000       6.37288760      10.13875225
W        2.25318050       7.96610950      10.13875225
W        2.25318050       6.37288760      12.39188965
W        4.50636100       7.96610950      12.39188965
W        4.50636100       6.37288760      14.64501694
W        2.25318050       7.96610950      14.64501694
W        2.25318050       6.37288760      16.89815510
W       -0.00000000       7.96610950      16.89815510
W       -0.00000000       6.37288760      22.12563528
W        2.25318050       7.96610950      22.12563528
W        2.25318050       6.37288760      24.37877343
W       -0.00000000       7.96610950      24.37877343
W       -0.00000000       6.37288760      26.63190072
W        2.25318050       7.96610950      26.63190072
W        2.25318050       6.37288760      28.88503812
W       -0.00000000       7.96610950      28.88503812
W        4.50636100       6.37288760      31.13813272
W        2.25318050       7.96610950      31.13813272
W        2.25318050       6.37288760      33.39117575
W       -0.00000000       7.96610950      33.39117575
W       -0.00000000       6.37288760      35.64417204
W        2.25318050       7.96610950      35.64417204
W        2.25318050       6.37288760      37.89723448
W       -0.00000000       7.96610950      37.89723448
W        4.50636100      -0.00000000       1.12655590
W        6.75954150       1.59322190       1.12655590
W        6.75954150       0.00000000       3.37961833
W        9.01272200       1.59322190       3.37961833
W        4.50636100       0.00000000       5.63261462
W        6.75954150       1.59322190       5.63261462
W        6.75954150      -0.00000000       7.88565765
W        9.01272200       1.59322190       7.88565765
W        4.50636100      -0.00000000      10.13875225
W        6.75954150       1.59322190      10.13875225
W        6.75954150       0.00000000      12.39188965
W        9.01272200       1.59322190      12.39188965
W        9.01272200      -0.00000000      14.64501694
W        6.75954150       1.59322190      14.64501694
W        6.75954150       0.00000000      16.89815510
W        4.50636100       1.59322190      16.89815510
W        4.50636100      -0.00000000      22.12563528
W        6.75954150       1.59322190      22.12563528
W        6.75954150      -0.00000000      24.37877343
W        4.50636100       1.59322190      24.37877343
W        4.50636100       0.00000000      26.63190072
W        6.75954150       1.59322190      26.63190072
W        6.75954150       0.00000000      28.88503812
W        4.50636100       1.59322190      28.88503812
W        9.01272200      -0.00000000      31.13813272
W        6.75954150       1.59322190      31.13813272
W        6.75954150      -0.00000000      33.39117575
W        4.50636100       1.59322190      33.39117575
W        4.50636100       0.00000000      35.64417204
W        6.75954150       1.59322190      35.64417204
W        6.75954150      -0.00000000      37.89723448
W        4.50636100       1.59322190      37.89723448
W        4.50636100       3.18644380       1.12655590
W        6.75954150       4.77966570       1.12655590
W        6.75954150       3.18644380       3.37961833
W        9.01272200       4.77966570       3.37961833
W        4.50636100       3.18644380       5.63261462
W        6.75954150       4.77966570       5.63261462
W        6.75954150       3.18644380       7.88565765
W        9.01272200       4.77966570       7.88565765
W        4.50636100       3.18644380      10.13875225
W        6.75954150       4.77966570      10.13875225
W        6.75954150       3.18644380      12.39188965
W        9.01272200       4.77966570      12.39188965
W        9.01272200       3.18644380      14.64501694
W        6.75954150       4.77966570      14.64501694
W        6.75954150       3.18644380      16.89815510
W        4.50636100       4.77966570      16.89815510
W        4.50636100       3.18644380      22.12563528
W        6.75954150       4.77966570      22.12563528
W        6.75954150       3.18644380      24.37877343
W        4.50636100       4.77966570      24.37877343
W        4.50636100       3.18644380      26.63190072
W        6.75954150       4.77966570      26.63190072
W        6.75954150       3.18644380      28.88503812
W        4.50636100       4.77966570      28.88503812
W        9.01272200       3.18644380      31.13813272
W        6.75954150       4.77966570      31.13813272
W        6.75954150       3.18644380      33.39117575
W        4.50636100       4.77966570      33.39117575
W        4.50636100       3.18644380      35.64417204
W        6.75954150       4.77966570      35.64417204
W        6.75954150       3.18644380      37.89723448
W        4.50636100       4.77966570      37.89723448
W        4.50636100       6.37288760       1.12655590
W        6.75954150       7.96610950       1.12655590
W        6.75954150       6.37288760       3.37961833
W        9.01272200       7.96610950       3.37961833
W        4.50636100       6.37288760       5.63261462
W        6.75954150       7.96610950       5.63261462
W        6.75954150       6.37288760       7.88565765
W        9.01272200       7.96610950       7.88565765
W        4.50636100       6.37288760      10.13875225
W        6.75954150       7.96610950      10.13875225
W        6.75954150       6.37288760      12.39188965
W        9.01272200       7.96610950      12.39188965
W        9.01272200       6.37288760      14.64501694
W        6.75954150       7.96610950      14.64501694
W        6.75954150       6.37288760      16.89815510
W        4.50636100       7.96610950      16.89815510
W        4.50636100       6.37288760      22.12563528
W        6.75954150       7.96610950      22.12563528
W        6.75954150       6.37288760      24.37877343
W        4.50636100       7.96610950      24.37877343
W        4.50636100       6.37288760      26.63190072
W        6.75954150       7.96610950      26.63190072
W        6.75954150       6.37288760      28.88503812
W        4.50636100       7.96610950      28.88503812
W        9.01272200       6.37288760      31.13813272
W        6.75954150       7.96610950      31.13813272
W        6.75954150       6.37288760      33.39117575
W        4.50636100       7.96610950      33.39117575
W        4.50636100       6.37288760      35.64417204
W        6.75954150       7.96610950      35.64417204
W        6.75954150       6.37288760      37.89723448
W        4.50636100       7.96610950      37.89723448
W        9.01272200      -0.00000000       1.12655590
W       11.26590250       1.59322190       1.12655590
W       11.26590250       0.00000000       3.37961833
W       13.51908301       1.59322190       3.37961833
W        9.01272200      -0.00000000       5.63261462
W       11.26590250       1.59322190       5.63261462
W       11.26590250      -0.00000000       7.88565765
W       13.51908301       1.59322190       7.88565765
W        9.01272200      -0.00000000      10.13875225
W       11.26590250       1.59322190      10.13875225
W       11.26590250       0.00000000      12.39188965
W       13.51908301       1.59322190      12.39188965
W       13.51908301      -0.00000000      14.64501694
W       11.26590250       1.59322190      14.64501694
W       11.26590250      -0.00000000      16.89815510
W        9.01272200       1.59322190      16.89815510
W        9.01272200      -0.00000000      22.12563528
W       11.26590250       1.59322190      22.12563528
W       11.26590250       0.00000000      24.37877343
W        9.01272200       1.59322190      24.37877343
W        9.01272200       0.00000000      26.63190072
W       11.26590250       1.59322190      26.63190072
W       11.26590250       0.00000000      28.88503812
W        9.01272200       1.59322190      28.88503812
W       13.51908301       0.00000000      31.13813272
W       11.26590250       1.59322190      31.13813272
W       11.26590250      -0.00000000      33.39117575
W        9.01272200       1.59322190      33.39117575
W        9.01272200      -0.00000000      35.64417204
W       11.26590250       1.59322190      35.64417204
W       11.26590250      -0.00000000      37.89723448
W        9.01272200       1.59322190      37.89723448
W        9.01272200       3.18644380       1.12655590
W       11.26590250       4.77966570       1.12655590
W       11.26590250       3.18644380       3.37961833
W       13.51908301       4.77966570       3.37961833
W        9.01272200       3.18644380       5.63261462
W       11.26590250       4.77966570       5.63261462
W       11.26590250       3.18644380       7.88565765
W       13.51908301       4.77966570       7.88565765
W        9.01272200       3.18644380      10.13875225
W       11.26590250       4.77966570      10.13875225
W       11.26590250       3.18644380      12.39188965
W       13.51908301       4.77966570      12.39188965
W       13.51908301       3.18644380      14.64501694
W       11.26590250       4.77966570      14.64501694
W       11.26590250       3.18644380      16.89815510
W        9.01272200       4.77966570      16.89815510
W        9.01272200       3.18644380      22.12563528
W       11.26590250       4.77966570      22.12563528
W       11.26590250       3.18644380      24.37877343
W        9.01272200       4.77966570      24.37877343
W        9.01272200       3.18644380      26.63190072
W       11.26590250       4.77966570      26.63190072
W       11.26590250       3.18644380      28.88503812
W        9.01272200       4.77966570      28.88503812
W       13.51908301       3.18644380      31.13813272
W       11.26590250       4.77966570      31.13813272
W       11.26590250       3.18644380      33.39117575
W        9.01272200       4.77966570      33.39117575
W        9.01272200       3.18644380      35.64417204
W       11.26590250       4.77966570      35.64417204
W       11.26590250       3.18644380      37.89723448
W        9.01272200       4.77966570      37.89723448
W        9.01272200       6.37288760       1.12655590
W       11.26590250       7.96610950       1.12655590
W       11.26590250       6.37288760       3.37961833
W       13.51908301       7.96610950       3.37961833
W        9.01272200       6.37288760       5.63261462
W       11.26590250       7.96610950       5.63261462
W       11.26590250       6.37288760       7.88565765
W       13.51908301       7.96610950       7.88565765
W        9.01272200       6.37288760      10.13875225
W       11.26590250       7.96610950      10.13875225
W       11.26590250       6.37288760      12.39188965
W       13.51908301       7.96610950      12.39188965
W       13.51908301       6.37288760      14.64501694
W       11.26590250       7.96610950      14.64501694
W       11.26590250       6.37288760      16.89815510
W        9.01272200       7.96610950      16.89815510
W        9.01272200       6.37288760      22.12563528
W       11.26590250       7.96610950      22.12563528
W       11.26590250       6.37288760      24.37877343
W        9.01272200       7.96610950      24.37877343
W        9.01272200       6.37288760      26.63190072
W       11.26590250       7.96610950      26.63190072
W       11.26590250       6.37288760      28.88503812
W        9.01272200       7.96610950      28.88503812
W       13.51908301       6.37288760      31.13813272
W       11.26590250       7.96610950      31.13813272
W       11.26590250       6.37288760      33.39117575
W        9.01272200       7.96610950      33.39117575
W        9.01272200       6.37288760      35.64417204
W       11.26590250       7.96610950      35.64417204
W       11.26590250       6.37288760      37.89723448
W        9.01272200       7.96610950      37.89723448
288
Lattice="13.519083005276505 3.9762680028551066e-17 -4.0430281816947754e-17 2.832107032207403e-17 9.559331404516637 -2.7421228983415876e-17 -9.765279892702126e-17 -9.449974793418939e-17 39.12635447545283" Properties=species:S:1:pos:R:3 vacuum_gap_Ang=3.0769230769230766 frame_index=30 pbc="T T T"
W       -0.00000000       0.00000000       1.12655590
W        2.25318050       1.59322190       1.12655590
W        2.25318050       0.00000000       3.37961833
W        4.50636100       1.59322190       3.37961833
W       -0.00000000       0.00000000       5.63261462
W        2.25318050       1.59322190       5.63261462
W        2.25318050      -0.00000000       7.88565765
W        4.50636100       1.59322190       7.88565765
W       -0.00000000       0.00000000      10.13875225
W        2.25318050       1.59322190      10.13875225
W        2.25318050      -0.00000000      12.39188965
W        4.50636100       1.59322190      12.39188965
W        4.50636100      -0.00000000      14.64501694
W        2.25318050       1.59322190      14.64501694
W        2.25318050       0.00000000      16.89815510
W       -0.00000000       1.59322190      16.89815510
W       -0.00000000       0.00000000      22.22819938
W        2.25318050       1.59322190      22.22819938
W        2.25318050      -0.00000000      24.48133753
W       -0.00000000       1.59322190      24.48133753
W       -0.00000000      -0.00000000      26.73446483
W        2.25318050       1.59322190      26.73446483
W        2.25318050       0.00000000      28.98760222
W       -0.00000000       1.59322190      28.98760222
W        4.50636100      -0.00000000      31.24069682
W        2.25318050       1.59322190      31.24069682
W        2.25318050      -0.00000000      33.49373985
W       -0.00000000       1.59322190      33.49373985
W       -0.00000000      -0.00000000      35.74673614
W        2.25318050       1.59322190      35.74673614
W        2.25318050       0.00000000      37.99979858
W       -0.00000000       1.59322190      37.99979858
W       -0.00000000       3.18644380       1.12655590
W        2.25318050       4.77966570       1.12655590
W        2.25318050       3.18644380       3.37961833
W        4.50636100       4.77966570       3.37961833
W       -0.00000000       3.18644380       5.63261462
W        2.25318050       4.77966570       5.63261462
W        2.25318050       3.18644380       7.88565765
W        4.50636100       4.77966570       7.88565765
W       -0.00000000       3.18644380      10.13875225
W        2.25318050       4.77966570      10.13875225
W        2.25318050       3.18644380      12.39188965
W        4.50636100       4.77966570      12.39188965
W        4.50636100       3.18644380      14.64501694
W        2.25318050       4.77966570      14.64501694
W        2.25318050       3.18644380      16.89815510
W       -0.00000000       4.77966570      16.89815510
W       -0.00000000       3.18644380      22.22819938
W        2.25318050       4.77966570      22.22819938
W        2.25318050       3.18644380      24.48133753
W       -0.00000000       4.77966570      24.48133753
W       -0.00000000       3.18644380      26.73446483
W        2.25318050       4.77966570      26.73446483
W        2.25318050       3.18644380      28.98760222
W       -0.00000000       4.77966570      28.98760222
W        4.50636100       3.18644380      31.24069682
W        2.25318050       4.77966570      31.24069682
W        2.25318050       3.18644380      33.49373985
W       -0.00000000       4.77966570      33.49373985
W       -0.00000000       3.18644380      35.74673614
W        2.25318050       4.77966570      35.74673614
W        2.25318050       3.18644380      37.99979858
W       -0.00000000       4.77966570      37.99979858
W       -0.00000000       6.37288760       1.12655590
W        2.25318050       7.96610950       1.12655590
W        2.25318050       6.37288760       3.37961833
W        4.50636100       7.96610950       3.37961833
W       -0.00000000       6.37288760       5.63261462
W        2.25318050       7.96610950       5.63261462
W        2.25318050       6.37288760       7.88565765
W        4.50636100       7.96610950       7.88565765
W        0.00000000       6.37288760      10.13875225
W        2.25318050       7.96610950      10.13875225
W        2.25318050       6.37288760      12.39188965
W        4.50636100       7.96610950      12.39188965
W        4.50636100       6.37288760      14.64501694
W        2.25318050       7.96610950      14.64501694
W        2.25318050       6.37288760      16.89815510
W       -0.00000000       7.96610950      16.89815510
W       -0.00000000       6.37288760      22.22819938
W        2.25318050       7.96610950      22.22819938
W        2.25318050       6.37288760      24.48133753
W       -0.00000000       7.96610950      24.48133753
W       -0.00000000       6.37288760      26.73446483
W        2.25318050       7.96610950      26.73446483
W        2.25318050       6.37288760      28.98760222
W       -0.00000000       7.96610950      28.98760222
W        4.50636100       6.37288760      31.24069682
W        2.25318050       7.96610950      31.24069682
W        2.25318050       6.37288760      33.49373985
W       -0.00000000       7.96610950      33.49373985
W       -0.00000000       6.37288760      35.74673614
W        2.25318050       7.96610950      35.74673614
W        2.25318050       6.37288760      37.99979858
W       -0.00000000       7.96610950      37.99979858
W        4.50636100      -0.00000000       1.12655590
W        6.75954150       1.59322190       1.12655590
W        6.75954150       0.00000000       3.37961833
W        9.01272200       1.59322190       3.37961833
W        4.50636100       0.00000000       5.63261462
W        6.75954150       1.59322190       5.63261462
W        6.75954150      -0.00000000       7.88565765
W        9.01272200       1.59322190       7.88565765
W        4.50636100      -0.00000000      10.13875225
W        6.75954150       1.59322190      10.13875225
W        6.75954150       0.00000000      12.39188965
W        9.01272200       1.59322190      12.39188965
W        9.01272200      -0.00000000      14.64501694
W        6.75954150       1.59322190      14.64501694
W        6.75954150       0.00000000      16.89815510
W        4.50636100       1.59322190      16.89815510
W        4.50636100      -0.00000000      22.22819938
W        6.75954150       1.59322190      22.22819938
W        6.75954150      -0.00000000      24.48133753
W        4.50636100       1.59322190      24.48133753
W        4.50636100       0.00000000      26.73446483
W        6.75954150       1.59322190      26.73446483
W        6.75954150       0.00000000      28.98760222
W        4.50636100       1.59322190      28.98760222
W        9.01272200      -0.00000000      31.24069682
W        6.75954150       1.59322190      31.24069682
W        6.75954150      -0.00000000      33.49373985
W        4.50636100       1.59322190      33.49373985
W        4.50636100       0.00000000      35.74673614
W        6.75954150       1.59322190      35.74673614
W        6.75954150      -0.00000000      37.99979858
W        4.50636100       1.59322190      37.99979858
W        4.50636100       3.18644380       1.12655590
W        6.75954150       4.77966570       1.12655590
W        6.75954150       3.18644380       3.37961833
W        9.01272200       4.77966570       3.37961833
W        4.50636100       3.18644380       5.63261462
W        6.75954150       4.77966570       5.63261462
W        6.75954150       3.18644380       7.88565765
W        9.01272200       4.77966570       7.88565765
W        4.50636100       3.18644380      10.13875225
W        6.75954150       4.77966570      10.13875225
W        6.75954150       3.18644380      12.39188965
W        9.01272200       4.77966570      12.39188965
W        9.01272200       3.18644380      14.64501694
W        6.75954150       4.77966570      14.64501694
W        6.75954150       3.18644380      16.89815510
W        4.50636100       4.77966570      16.89815510
W        4.50636100       3.18644380      22.22819938
W        6.75954150       4.77966570      22.22819938
W        6.75954150       3.18644380      24.48133753
W        4.50636100       4.77966570      24.48133753
W        4.50636100       3.18644380      26.73446483
W        6.75954150       4.77966570      26.73446483
W        6.75954150       3.18644380      28.98760222
W        4.50636100       4.77966570      28.98760222
W        9.01272200       3.18644380      31.24069682
W        6.75954150       4.77966570      31.24069682
W        6.75954150       3.18644380      33.49373985
W        4.50636100       4.77966570      33.49373985
W        4.50636100       3.18644380      35.74673614
W        6.75954150       4.77966570      35.74673614
W        6.75954150       3.18644380      37.99979858
W        4.50636100       4.77966570      37.99979858
W        4.50636100       6.37288760       1.12655590
W        6.75954150       7.96610950       1.12655590
W        6.75954150       6.37288760       3.37961833
W        9.01272200       7.96610950       3.37961833
W        4.50636100       6.37288760       5.63261462
W        6.75954150       7.96610950       5.63261462
W        6.75954150       6.37288760       7.88565765
W        9.01272200       7.96610950       7.88565765
W        4.50636100       6.37288760      10.13875225
W        6.75954150       7.96610950      10.13875225
W        6.75954150       6.37288760      12.39188965
W        9.01272200       7.96610950      12.39188965
W        9.01272200       6.37288760      14.64501694
W        6.75954150       7.96610950      14.64501694
W        6.75954150       6.37288760      16.89815510
W        4.50636100       7.96610950      16.89815510
W        4.50636100       6.37288760      22.22819938
W        6.75954150       7.96610950      22.22819938
W        6.75954150       6.37288760      24.48133753
W        4.50636100       7.96610950      24.48133753
W        4.50636100       6.37288760      26.73446483
W        6.75954150       7.96610950      26.73446483
W        6.75954150       6.37288760      28.98760222
W        4.50636100       7.96610950      28.98760222
W        9.01272200       6.37288760      31.24069682
W        6.75954150       7.96610950      31.24069682
W        6.75954150       6.37288760      33.49373985
W        4.50636100       7.96610950      33.49373985
W        4.50636100       6.37288760      35.74673614
W        6.75954150       7.96610950      35.74673614
W        6.75954150       6.37288760      37.99979858
W        4.50636100       7.96610950      37.99979858
W        9.01272200      -0.00000000       1.12655590
W       11.26590250       1.59322190       1.12655590
W       11.26590250       0.00000000       3.37961833
W       13.51908301       1.59322190       3.37961833
W        9.01272200      -0.00000000       5.63261462
W       11.26590250       1.59322190       5.63261462
W       11.26590250      -0.00000000       7.88565765
W       13.51908301       1.59322190       7.88565765
W        9.01272200      -0.00000000      10.13875225
W       11.26590250       1.59322190      10.13875225
W       11.26590250       0.00000000      12.39188965
W       13.51908301       1.59322190      12.39188965
W       13.51908301      -0.00000000      14.64501694
W       11.26590250       1.59322190      14.64501694
W       11.26590250      -0.00000000      16.89815510
W        9.01272200       1.59322190      16.89815510
W        9.01272200      -0.00000000      22.22819938
W       11.26590250       1.59322190      22.22819938
W       11.26590250       0.00000000      24.48133753
W        9.01272200       1.59322190      24.48133753
W        9.01272200       0.00000000      26.73446483
W       11.26590250       1.59322190      26.73446483
W       11.26590250       0.00000000      28.98760222
W        9.01272200       1.59322190      28.98760222
W       13.51908301       0.00000000      31.24069682
W       11.26590250       1.59322190      31.24069682
W       11.26590250      -0.00000000      33.49373985
W        9.01272200       1.59322190      33.49373985
W        9.01272200      -0.00000000      35.74673614
W       11.26590250       1.59322190      35.74673614
W       11.26590250      -0.00000000      37.99979858
W        9.01272200       1.59322190      37.99979858
W        9.01272200       3.18644380       1.12655590
W       11.26590250       4.77966570       1.12655590
W       11.26590250       3.18644380       3.37961833
W       13.51908301       4.77966570       3.37961833
W        9.01272200       3.18644380       5.63261462
W       11.26590250       4.77966570       5.63261462
W       11.26590250       3.18644380       7.88565765
W       13.51908301       4.77966570       7.88565765
W        9.01272200       3.18644380      10.13875225
W       11.26590250       4.77966570      10.13875225
W       11.26590250       3.18644380      12.39188965
W       13.51908301       4.77966570      12.39188965
W       13.51908301       3.18644380      14.64501694
W       11.26590250       4.77966570      14.64501694
W       11.26590250       3.18644380      16.89815510
W        9.01272200       4.77966570      16.89815510
W        9.01272200       3.18644380      22.22819938
W       11.26590250       4.77966570      22.22819938
W       11.26590250       3.18644380      24.48133753
W        9.01272200       4.77966570      24.48133753
W        9.01272200       3.18644380      26.73446483
W       11.26590250       4.77966570      26.73446483
W       11.26590250       3.18644380      28.98760222
W        9.01272200       4.77966570      28.98760222
W       13.51908301       3.18644380      31.24069682
W       11.26590250       4.77966570      31.24069682
W       11.26590250       3.18644380      33.49373985
W        9.01272200       4.77966570      33.49373985
W        9.01272200       3.18644380      35.74673614
W       11.26590250       4.77966570      35.74673614
W       11.26590250       3.18644380      37.99979858
W        9.01272200       4.77966570      37.99979858
W        9.01272200       6.37288760       1.12655590
W       11.26590250       7.96610950       1.12655590
W       11.26590250       6.37288760       3.37961833
W       13.51908301       7.96610950       3.37961833
W        9.01272200       6.37288760       5.63261462
W       11.26590250       7.96610950       5.63261462
W       11.26590250       6.37288760       7.88565765
W       13.51908301       7.96610950       7.88565765
W        9.01272200       6.37288760      10.13875225
W       11.26590250       7.96610950      10.13875225
W       11.26590250       6.37288760      12.39188965
W       13.51908301       7.96610950      12.39188965
W       13.51908301       6.37288760      14.64501694
W       11.26590250       7.96610950      14.64501694
W       11.26590250       6.37288760      16.89815510
W        9.01272200       7.96610950      16.89815510
W        9.01272200       6.37288760      22.22819938
W       11.26590250       7.96610950      22.22819938
W       11.26590250       6.37288760      24.48133753
W        9.01272200       7.96610950      24.48133753
W        9.01272200       6.37288760      26.73446483
W       11.26590250       7.96610950      26.73446483
W       11.26590250       6.37288760      28.98760222
W        9.01272200       7.96610950      28.98760222
W       13.51908301       6.37288760      31.24069682
W       11.26590250       7.96610950      31.24069682
W       11.26590250       6.37288760      33.49373985
W        9.01272200       7.96610950      33.49373985
W        9.01272200       6.37288760      35.74673614
W       11.26590250       7.96610950      35.74673614
W       11.26590250       6.37288760      37.99979858
W        9.01272200       7.96610950      37.99979858
288
Lattice="13.519083005276505 3.9762680028551066e-17 -4.0430281816947754e-17 2.832107032207403e-17 9.559331404516637 -2.7421228983415876e-17 -9.765279892702126e-17 -9.449974793418939e-17 39.22891857801694" Properties=species:S:1:pos:R:3 vacuum_gap_Ang=3.1794871794871793 frame_index=31 pbc="T T T"
W       -0.00000000       0.00000000       1.12655590
W        2.25318050       1.59322190       1.12655590
W        2.25318050       0.00000000       3.37961833
W        4.50636100       1.59322190       3.37961833
W       -0.00000000       0.00000000       5.63261462
W        2.25318050       1.59322190       5.63261462
W        2.25318050      -0.00000000       7.88565765
W        4.50636100       1.59322190       7.88565765
W       -0.00000000       0.00000000      10.13875225
W        2.25318050       1.59322190      10.13875225
W        2.25318050      -0.00000000      12.39188965
W        4.50636100       1.59322190      12.39188965
W        4.50636100      -0.00000000      14.64501694
W        2.25318050       1.59322190      14.64501694
W        2.25318050       0.00000000      16.89815510
W       -0.00000000       1.59322190      16.89815510
W       -0.00000000       0.00000000      22.33076348
W        2.25318050       1.59322190      22.33076348
W        2.25318050      -0.00000000      24.58390164
W       -0.00000000       1.59322190      24.58390164
W       -0.00000000      -0.00000000      26.83702893
W        2.25318050       1.59322190      26.83702893
W        2.25318050       0.00000000      29.09016633
W       -0.00000000       1.59322190      29.09016633
W        4.50636100      -0.00000000      31.34326093
W        2.25318050       1.59322190      31.34326093
W        2.25318050      -0.00000000      33.59630396
W       -0.00000000       1.59322190      33.59630396
W       -0.00000000      -0.00000000      35.84930025
W        2.25318050       1.59322190      35.84930025
W        2.25318050       0.00000000      38.10236268
W       -0.00000000       1.59322190      38.10236268
W       -0.00000000       3.18644380       1.12655590
W        2.25318050       4.77966570       1.12655590
W        2.25318050       3.18644380       3.37961833
W        4.50636100       4.77966570       3.37961833
W       -0.00000000       3.18644380       5.63261462
W        2.25318050       4.77966570       5.63261462
W        2.25318050       3.18644380       7.88565765
W        4.50636100       4.77966570       7.88565765
W       -0.00000000       3.18644380      10.13875225
W        2.25318050       4.77966570      10.13875225
W        2.25318050       3.18644380      12.39188965
W        4.50636100       4.77966570      12.39188965
W        4.50636100       3.18644380      14.64501694
W        2.25318050       4.77966570      14.64501694
W        2.25318050       3.18644380      16.89815510
W       -0.00000000       4.77966570      16.89815510
W       -0.00000000       3.18644380      22.33076348
W        2.25318050       4.77966570      22.33076348
W        2.25318050       3.18644380      24.58390164
W       -0.00000000       4.77966570      24.58390164
W       -0.00000000       3.18644380      26.83702893
W        2.25318050       4.77966570      26.83702893
W        2.25318050       3.18644380      29.09016633
W       -0.00000000       4.77966570      29.09016633
W        4.50636100       3.18644380      31.34326093
W        2.25318050       4.77966570      31.34326093
W        2.25318050       3.18644380      33.59630396
W       -0.00000000       4.77966570      33.59630396
W       -0.00000000       3.18644380      35.84930025
W        2.25318050       4.77966570      35.84930025
W        2.25318050       3.18644380      38.10236268
W       -0.00000000       4.77966570      38.10236268
W       -0.00000000       6.37288760       1.12655590
W        2.25318050       7.96610950       1.12655590
W        2.25318050       6.37288760       3.37961833
W        4.50636100       7.96610950       3.37961833
W       -0.00000000       6.37288760       5.63261462
W        2.25318050       7.96610950       5.63261462
W        2.25318050       6.37288760       7.88565765
W        4.50636100       7.96610950       7.88565765
W        0.00000000       6.37288760      10.13875225
W        2.25318050       7.96610950      10.13875225
W        2.25318050       6.37288760      12.39188965
W        4.50636100       7.96610950      12.39188965
W        4.50636100       6.37288760      14.64501694
W        2.25318050       7.96610950      14.64501694
W        2.25318050       6.37288760      16.89815510
W       -0.00000000       7.96610950      16.89815510
W       -0.00000000       6.37288760      22.33076348
W        2.25318050       7.96610950      22.33076348
W        2.25318050       6.37288760      24.58390164
W       -0.00000000       7.96610950      24.58390164
W       -0.00000000       6.37288760      26.83702893
W        2.25318050       7.96610950      26.83702893
W        2.25318050       6.37288760      29.09016633
W       -0.00000000       7.96610950      29.09016633
W        4.50636100       6.37288760      31.34326093
W        2.25318050       7.96610950      31.34326093
W        2.25318050       6.37288760      33.59630396
W       -0.00000000       7.96610950      33.59630396
W       -0.00000000       6.37288760      35.84930025
W        2.25318050       7.96610950      35.84930025
W        2.25318050       6.37288760      38.10236268
W       -0.00000000       7.96610950      38.10236268
W        4.50636100      -0.00000000       1.12655590
W        6.75954150       1.59322190       1.12655590
W        6.75954150       0.00000000       3.37961833
W        9.01272200       1.59322190       3.37961833
W        4.50636100       0.00000000       5.63261462
W        6.75954150       1.59322190       5.63261462
W        6.75954150      -0.00000000       7.88565765
W        9.01272200       1.59322190       7.88565765
W        4.50636100      -0.00000000      10.13875225
W        6.75954150       1.59322190      10.13875225
W        6.75954150       0.00000000      12.39188965
W        9.01272200       1.59322190      12.39188965
W        9.01272200      -0.00000000      14.64501694
W        6.75954150       1.59322190      14.64501694
W        6.75954150       0.00000000      16.89815510
W        4.50636100       1.59322190      16.89815510
W        4.50636100      -0.00000000      22.33076348
W        6.75954150       1.59322190      22.33076348
W        6.75954150      -0.00000000      24.58390164
W        4.50636100       1.59322190      24.58390164
W        4.50636100       0.00000000      26.83702893
W        6.75954150       1.59322190      26.83702893
W        6.75954150       0.00000000      29.09016633
W        4.50636100       1.59322190      29.09016633
W        9.01272200      -0.00000000      31.34326093
W        6.75954150       1.59322190      31.34326093
W        6.75954150      -0.00000000      33.59630396
W        4.50636100       1.59322190      33.59630396
W        4.50636100       0.00000000      35.84930025
W        6.75954150       1.59322190      35.84930025
W        6.75954150      -0.00000000      38.10236268
W        4.50636100       1.59322190      38.10236268
W        4.50636100       3.18644380       1.12655590
W        6.75954150       4.77966570       1.12655590
W        6.75954150       3.18644380       3.37961833
W        9.01272200       4.77966570       3.37961833
W        4.50636100       3.18644380       5.63261462
W        6.75954150       4.77966570       5.63261462
W        6.75954150       3.18644380       7.88565765
W        9.01272200       4.77966570       7.88565765
W        4.50636100       3.18644380      10.13875225
W        6.75954150       4.77966570      10.13875225
W        6.75954150       3.18644380      12.39188965
W        9.01272200       4.77966570      12.39188965
W        9.01272200       3.18644380      14.64501694
W        6.75954150       4.77966570      14.64501694
W        6.75954150       3.18644380      16.89815510
W        4.50636100       4.77966570      16.89815510
W        4.50636100       3.18644380      22.33076348
W        6.75954150       4.77966570      22.33076348
W        6.75954150       3.18644380      24.58390164
W        4.50636100       4.77966570      24.58390164
W        4.50636100       3.18644380      26.83702893
W        6.75954150       4.77966570      26.83702893
W        6.75954150       3.18644380      29.09016633
W        4.50636100       4.77966570      29.09016633
W        9.01272200       3.18644380      31.34326093
W        6.75954150       4.77966570      31.34326093
W        6.75954150       3.18644380      33.59630396
W        4.50636100       4.77966570      33.59630396
W        4.50636100       3.18644380      35.84930025
W        6.75954150       4.77966570      35.84930025
W        6.75954150       3.18644380      38.10236268
W        4.50636100       4.77966570      38.10236268
W        4.50636100       6.37288760       1.12655590
W        6.75954150       7.96610950       1.12655590
W        6.75954150       6.37288760       3.37961833
W        9.01272200       7.96610950       3.37961833
W        4.50636100       6.37288760       5.63261462
W        6.75954150       7.96610950       5.63261462
W        6.75954150       6.37288760       7.88565765
W        9.01272200       7.96610950       7.88565765
W        4.50636100       6.37288760      10.13875225
W        6.75954150       7.96610950      10.13875225
W        6.75954150       6.37288760      12.39188965
W        9.01272200       7.96610950      12.39188965
W        9.01272200       6.37288760      14.64501694
W        6.75954150       7.96610950      14.64501694
W        6.75954150       6.37288760      16.89815510
W        4.50636100       7.96610950      16.89815510
W        4.50636100       6.37288760      22.33076348
W        6.75954150       7.96610950      22.33076348
W        6.75954150       6.37288760      24.58390164
W        4.50636100       7.96610950      24.58390164
W        4.50636100       6.37288760      26.83702893
W        6.75954150       7.96610950      26.83702893
W        6.75954150       6.37288760      29.09016633
W        4.50636100       7.96610950      29.09016633
W        9.01272200       6.37288760      31.34326093
W        6.75954150       7.96610950      31.34326093
W        6.75954150       6.37288760      33.59630396
W        4.50636100       7.96610950      33.59630396
W        4.50636100       6.37288760      35.84930025
W        6.75954150       7.96610950      35.84930025
W        6.75954150       6.37288760      38.10236268
W        4.50636100       7.96610950      38.10236268
W        9.01272200      -0.00000000       1.12655590
W       11.26590250       1.59322190       1.12655590
W       11.26590250       0.00000000       3.37961833
W       13.51908301       1.59322190       3.37961833
W        9.01272200      -0.00000000       5.63261462
W       11.26590250       1.59322190       5.63261462
W       11.26590250      -0.00000000       7.88565765
W       13.51908301       1.59322190       7.88565765
W        9.01272200      -0.00000000      10.13875225
W       11.26590250       1.59322190      10.13875225
W       11.26590250       0.00000000      12.39188965
W       13.51908301       1.59322190      12.39188965
W       13.51908301      -0.00000000      14.64501694
W       11.26590250       1.59322190      14.64501694
W       11.26590250      -0.00000000      16.89815510
W        9.01272200       1.59322190      16.89815510
W        9.01272200      -0.00000000      22.33076348
W       11.26590250       1.59322190      22.33076348
W       11.26590250       0.00000000      24.58390164
W        9.01272200       1.59322190      24.58390164
W        9.01272200       0.00000000      26.83702893
W       11.26590250       1.59322190      26.83702893
W       11.26590250       0.00000000      29.09016633
W        9.01272200       1.59322190      29.09016633
W       13.51908301       0.00000000      31.34326093
W       11.26590250       1.59322190      31.34326093
W       11.26590250      -0.00000000      33.59630396
W        9.01272200       1.59322190      33.59630396
W        9.01272200      -0.00000000      35.84930025
W       11.26590250       1.59322190      35.84930025
W       11.26590250      -0.00000000      38.10236268
W        9.01272200       1.59322190      38.10236268
W        9.01272200       3.18644380       1.12655590
W       11.26590250       4.77966570       1.12655590
W       11.26590250       3.18644380       3.37961833
W       13.51908301       4.77966570       3.37961833
W        9.01272200       3.18644380       5.63261462
W       11.26590250       4.77966570       5.63261462
W       11.26590250       3.18644380       7.88565765
W       13.51908301       4.77966570       7.88565765
W        9.01272200       3.18644380      10.13875225
W       11.26590250       4.77966570      10.13875225
W       11.26590250       3.18644380      12.39188965
W       13.51908301       4.77966570      12.39188965
W       13.51908301       3.18644380      14.64501694
W       11.26590250       4.77966570      14.64501694
W       11.26590250       3.18644380      16.89815510
W        9.01272200       4.77966570      16.89815510
W        9.01272200       3.18644380      22.33076348
W       11.26590250       4.77966570      22.33076348
W       11.26590250       3.18644380      24.58390164
W        9.01272200       4.77966570      24.58390164
W        9.01272200       3.18644380      26.83702893
W       11.26590250       4.77966570      26.83702893
W       11.26590250       3.18644380      29.09016633
W        9.01272200       4.77966570      29.09016633
W       13.51908301       3.18644380      31.34326093
W       11.26590250       4.77966570      31.34326093
W       11.26590250       3.18644380      33.59630396
W        9.01272200       4.77966570      33.59630396
W        9.01272200       3.18644380      35.84930025
W       11.26590250       4.77966570      35.84930025
W       11.26590250       3.18644380      38.10236268
W        9.01272200       4.77966570      38.10236268
W        9.01272200       6.37288760       1.12655590
W       11.26590250       7.96610950       1.12655590
W       11.26590250       6.37288760       3.37961833
W       13.51908301       7.96610950       3.37961833
W        9.01272200       6.37288760       5.63261462
W       11.26590250       7.96610950       5.63261462
W       11.26590250       6.37288760       7.88565765
W       13.51908301       7.96610950       7.88565765
W        9.01272200       6.37288760      10.13875225
W       11.26590250       7.96610950      10.13875225
W       11.26590250       6.37288760      12.39188965
W       13.51908301       7.96610950      12.39188965
W       13.51908301       6.37288760      14.64501694
W       11.26590250       7.96610950      14.64501694
W       11.26590250       6.37288760      16.89815510
W        9.01272200       7.96610950      16.89815510
W        9.01272200       6.37288760      22.33076348
W       11.26590250       7.96610950      22.33076348
W       11.26590250       6.37288760      24.58390164
W        9.01272200       7.96610950      24.58390164
W        9.01272200       6.37288760      26.83702893
W       11.26590250       7.96610950      26.83702893
W       11.26590250       6.37288760      29.09016633
W        9.01272200       7.96610950      29.09016633
W       13.51908301       6.37288760      31.34326093
W       11.26590250       7.96610950      31.34326093
W       11.26590250       6.37288760      33.59630396
W        9.01272200       7.96610950      33.59630396
W        9.01272200       6.37288760      35.84930025
W       11.26590250       7.96610950      35.84930025
W       11.26590250       6.37288760      38.10236268
W        9.01272200       7.96610950      38.10236268
288
Lattice="13.519083005276505 3.9762680028551066e-17 -4.0430281816947754e-17 2.832107032207403e-17 9.559331404516637 -2.7421228983415876e-17 -9.765279892702126e-17 -9.449974793418939e-17 39.33148268058104" Properties=species:S:1:pos:R:3 vacuum_gap_Ang=3.282051282051282 frame_index=32 pbc="T T T"
W       -0.00000000       0.00000000       1.12655590
W        2.25318050       1.59322190       1.12655590
W        2.25318050       0.00000000       3.37961833
W        4.50636100       1.59322190       3.37961833
W       -0.00000000       0.00000000       5.63261462
W        2.25318050       1.59322190       5.63261462
W        2.25318050      -0.00000000       7.88565765
W        4.50636100       1.59322190       7.88565765
W       -0.00000000       0.00000000      10.13875225
W        2.25318050       1.59322190      10.13875225
W        2.25318050      -0.00000000      12.39188965
W        4.50636100       1.59322190      12.39188965
W        4.50636100      -0.00000000      14.64501694
W        2.25318050       1.59322190      14.64501694
W        2.25318050       0.00000000      16.89815510
W       -0.00000000       1.59322190      16.89815510
W       -0.00000000       0.00000000      22.43332759
W        2.25318050       1.59322190      22.43332759
W        2.25318050      -0.00000000      24.68646574
W       -0.00000000       1.59322190      24.68646574
W       -0.00000000      -0.00000000      26.93959303
W        2.25318050       1.59322190      26.93959303
W        2.25318050       0.00000000      29.19273043
W       -0.00000000       1.59322190      29.19273043
W        4.50636100      -0.00000000      31.44582503
W        2.25318050       1.59322190      31.44582503
W        2.25318050      -0.00000000      33.69886806
W       -0.00000000       1.59322190      33.69886806
W       -0.00000000      -0.00000000      35.95186435
W        2.25318050       1.59322190      35.95186435
W        2.25318050       0.00000000      38.20492678
W       -0.00000000       1.59322190      38.20492678
W       -0.00000000       3.18644380       1.12655590
W        2.25318050       4.77966570       1.12655590
W        2.25318050       3.18644380       3.37961833
W        4.50636100       4.77966570       3.37961833
W       -0.00000000       3.18644380       5.63261462
W        2.25318050       4.77966570       5.63261462
W        2.25318050       3.18644380       7.88565765
W        4.50636100       4.77966570       7.88565765
W       -0.00000000       3.18644380      10.13875225
W        2.25318050       4.77966570      10.13875225
W        2.25318050       3.18644380      12.39188965
W        4.50636100       4.77966570      12.39188965
W        4.50636100       3.18644380      14.64501694
W        2.25318050       4.77966570      14.64501694
W        2.25318050       3.18644380      16.89815510
W       -0.00000000       4.77966570      16.89815510
W       -0.00000000       3.18644380      22.43332759
W        2.25318050       4.77966570      22.43332759
W        2.25318050       3.18644380      24.68646574
W       -0.00000000       4.77966570      24.68646574
W       -0.00000000       3.18644380      26.93959303
W        2.25318050       4.77966570      26.93959303
W        2.25318050       3.18644380      29.19273043
W       -0.00000000       4.77966570      29.19273043
W        4.50636100       3.18644380      31.44582503
W        2.25318050       4.77966570      31.44582503
W        2.25318050       3.18644380      33.69886806
W       -0.00000000       4.77966570      33.69886806
W       -0.00000000       3.18644380      35.95186435
W        2.25318050       4.77966570      35.95186435
W        2.25318050       3.18644380      38.20492678
W       -0.00000000       4.77966570      38.20492678
W       -0.00000000       6.37288760       1.12655590
W        2.25318050       7.96610950       1.12655590
W        2.25318050       6.37288760       3.37961833
W        4.50636100       7.96610950       3.37961833
W       -0.00000000       6.37288760       5.63261462
W        2.25318050       7.96610950       5.63261462
W        2.25318050       6.37288760       7.88565765
W        4.50636100       7.96610950       7.88565765
W        0.00000000       6.37288760      10.13875225
W        2.25318050       7.96610950      10.13875225
W        2.25318050       6.37288760      12.39188965
W        4.50636100       7.96610950      12.39188965
W        4.50636100       6.37288760      14.64501694
W        2.25318050       7.96610950      14.64501694
W        2.25318050       6.37288760      16.89815510
W       -0.00000000       7.96610950      16.89815510
W       -0.00000000       6.37288760      22.43332759
W        2.25318050       7.96610950      22.43332759
W        2.25318050       6.37288760      24.68646574
W       -0.00000000       7.96610950      24.68646574
W       -0.00000000       6.37288760      26.93959303
W        2.25318050       7.96610950      26.93959303
W        2.25318050       6.37288760      29.19273043
W       -0.00000000       7.96610950      29.19273043
W        4.50636100       6.37288760      31.44582503
W        2.25318050       7.96610950      31.44582503
W        2.25318050       6.37288760      33.69886806
W       -0.00000000       7.96610950      33.69886806
W       -0.00000000       6.37288760      35.95186435
W        2.25318050       7.96610950      35.95186435
W        2.25318050       6.37288760      38.20492678
W       -0.00000000       7.96610950      38.20492678
W        4.50636100      -0.00000000       1.12655590
W        6.75954150       1.59322190       1.12655590
W        6.75954150       0.00000000       3.37961833
W        9.01272200       1.59322190       3.37961833
W        4.50636100       0.00000000       5.63261462
W        6.75954150       1.59322190       5.63261462
W        6.75954150      -0.00000000       7.88565765
W        9.01272200       1.59322190       7.88565765
W        4.50636100      -0.00000000      10.13875225
W        6.75954150       1.59322190      10.13875225
W        6.75954150       0.00000000      12.39188965
W        9.01272200       1.59322190      12.39188965
W        9.01272200      -0.00000000      14.64501694
W        6.75954150       1.59322190      14.64501694
W        6.75954150       0.00000000      16.89815510
W        4.50636100       1.59322190      16.89815510
W        4.50636100      -0.00000000      22.43332759
W        6.75954150       1.59322190      22.43332759
W        6.75954150      -0.00000000      24.68646574
W        4.50636100       1.59322190      24.68646574
W        4.50636100       0.00000000      26.93959303
W        6.75954150       1.59322190      26.93959303
W        6.75954150       0.00000000      29.19273043
W        4.50636100       1.59322190      29.19273043
W        9.01272200      -0.00000000      31.44582503
W        6.75954150       1.59322190      31.44582503
W        6.75954150      -0.00000000      33.69886806
W        4.50636100       1.59322190      33.69886806
W        4.50636100       0.00000000      35.95186435
W        6.75954150       1.59322190      35.95186435
W        6.75954150      -0.00000000      38.20492678
W        4.50636100       1.59322190      38.20492678
W        4.50636100       3.18644380       1.12655590
W        6.75954150       4.77966570       1.12655590
W        6.75954150       3.18644380       3.37961833
W        9.01272200       4.77966570       3.37961833
W        4.50636100       3.18644380       5.63261462
W        6.75954150       4.77966570       5.63261462
W        6.75954150       3.18644380       7.88565765
W        9.01272200       4.77966570       7.88565765
W        4.50636100       3.18644380      10.13875225
W        6.75954150       4.77966570      10.13875225
W        6.75954150       3.18644380      12.39188965
W        9.01272200       4.77966570      12.39188965
W        9.01272200       3.18644380      14.64501694
W        6.75954150       4.77966570      14.64501694
W        6.75954150       3.18644380      16.89815510
W        4.50636100       4.77966570      16.89815510
W        4.50636100       3.18644380      22.43332759
W        6.75954150       4.77966570      22.43332759
W        6.75954150       3.18644380      24.68646574
W        4.50636100       4.77966570      24.68646574
W        4.50636100       3.18644380      26.93959303
W        6.75954150       4.77966570      26.93959303
W        6.75954150       3.18644380      29.19273043
W        4.50636100       4.77966570      29.19273043
W        9.01272200       3.18644380      31.44582503
W        6.75954150       4.77966570      31.44582503
W        6.75954150       3.18644380      33.69886806
W        4.50636100       4.77966570      33.69886806
W        4.50636100       3.18644380      35.95186435
W        6.75954150       4.77966570      35.95186435
W        6.75954150       3.18644380      38.20492678
W        4.50636100       4.77966570      38.20492678
W        4.50636100       6.37288760       1.12655590
W        6.75954150       7.96610950       1.12655590
W        6.75954150       6.37288760       3.37961833
W        9.01272200       7.96610950       3.37961833
W        4.50636100       6.37288760       5.63261462
W        6.75954150       7.96610950       5.63261462
W        6.75954150       6.37288760       7.88565765
W        9.01272200       7.96610950       7.88565765
W        4.50636100       6.37288760      10.13875225
W        6.75954150       7.96610950      10.13875225
W        6.75954150       6.37288760      12.39188965
W        9.01272200       7.96610950      12.39188965
W        9.01272200       6.37288760      14.64501694
W        6.75954150       7.96610950      14.64501694
W        6.75954150       6.37288760      16.89815510
W        4.50636100       7.96610950      16.89815510
W        4.50636100       6.37288760      22.43332759
W        6.75954150       7.96610950      22.43332759
W        6.75954150       6.37288760      24.68646574
W        4.50636100       7.96610950      24.68646574
W        4.50636100       6.37288760      26.93959303
W        6.75954150       7.96610950      26.93959303
W        6.75954150       6.37288760      29.19273043
W        4.50636100       7.96610950      29.19273043
W        9.01272200       6.37288760      31.44582503
W        6.75954150       7.96610950      31.44582503
W        6.75954150       6.37288760      33.69886806
W        4.50636100       7.96610950      33.69886806
W        4.50636100       6.37288760      35.95186435
W        6.75954150       7.96610950      35.95186435
W        6.75954150       6.37288760      38.20492678
W        4.50636100       7.96610950      38.20492678
W        9.01272200      -0.00000000       1.12655590
W       11.26590250       1.59322190       1.12655590
W       11.26590250       0.00000000       3.37961833
W       13.51908301       1.59322190       3.37961833
W        9.01272200      -0.00000000       5.63261462
W       11.26590250       1.59322190       5.63261462
W       11.26590250      -0.00000000       7.88565765
W       13.51908301       1.59322190       7.88565765
W        9.01272200      -0.00000000      10.13875225
W       11.26590250       1.59322190      10.13875225
W       11.26590250       0.00000000      12.39188965
W       13.51908301       1.59322190      12.39188965
W       13.51908301      -0.00000000      14.64501694
W       11.26590250       1.59322190      14.64501694
W       11.26590250      -0.00000000      16.89815510
W        9.01272200       1.59322190      16.89815510
W        9.01272200      -0.00000000      22.43332759
W       11.26590250       1.59322190      22.43332759
W       11.26590250       0.00000000      24.68646574
W        9.01272200       1.59322190      24.68646574
W        9.01272200       0.00000000      26.93959303
W       11.26590250       1.59322190      26.93959303
W       11.26590250       0.00000000      29.19273043
W        9.01272200       1.59322190      29.19273043
W       13.51908301       0.00000000      31.44582503
W       11.26590250       1.59322190      31.44582503
W       11.26590250      -0.00000000      33.69886806
W        9.01272200       1.59322190      33.69886806
W        9.01272200      -0.00000000      35.95186435
W       11.26590250       1.59322190      35.95186435
W       11.26590250      -0.00000000      38.20492678
W        9.01272200       1.59322190      38.20492678
W        9.01272200       3.18644380       1.12655590
W       11.26590250       4.77966570       1.12655590
W       11.26590250       3.18644380       3.37961833
W       13.51908301       4.77966570       3.37961833
W        9.01272200       3.18644380       5.63261462
W       11.26590250       4.77966570       5.63261462
W       11.26590250       3.18644380       7.88565765
W       13.51908301       4.77966570       7.88565765
W        9.01272200       3.18644380      10.13875225
W       11.26590250       4.77966570      10.13875225
W       11.26590250       3.18644380      12.39188965
W       13.51908301       4.77966570      12.39188965
W       13.51908301       3.18644380      14.64501694
W       11.26590250       4.77966570      14.64501694
W       11.26590250       3.18644380      16.89815510
W        9.01272200       4.77966570      16.89815510
W        9.01272200       3.18644380      22.43332759
W       11.26590250       4.77966570      22.43332759
W       11.26590250       3.18644380      24.68646574
W        9.01272200       4.77966570      24.68646574
W        9.01272200       3.18644380      26.93959303
W       11.26590250       4.77966570      26.93959303
W       11.26590250       3.18644380      29.19273043
W        9.01272200       4.77966570      29.19273043
W       13.51908301       3.18644380      31.44582503
W       11.26590250       4.77966570      31.44582503
W       11.26590250       3.18644380      33.69886806
W        9.01272200       4.77966570      33.69886806
W        9.01272200       3.18644380      35.95186435
W       11.26590250       4.77966570      35.95186435
W       11.26590250       3.18644380      38.20492678
W        9.01272200       4.77966570      38.20492678
W        9.01272200       6.37288760       1.12655590
W       11.26590250       7.96610950       1.12655590
W       11.26590250       6.37288760       3.37961833
W       13.51908301       7.96610950       3.37961833
W        9.01272200       6.37288760       5.63261462
W       11.26590250       7.96610950       5.63261462
W       11.26590250       6.37288760       7.88565765
W       13.51908301       7.96610950       7.88565765
W        9.01272200       6.37288760      10.13875225
W       11.26590250       7.96610950      10.13875225
W       11.26590250       6.37288760      12.39188965
W       13.51908301       7.96610950      12.39188965
W       13.51908301       6.37288760      14.64501694
W       11.26590250       7.96610950      14.64501694
W       11.26590250       6.37288760      16.89815510
W        9.01272200       7.96610950      16.89815510
W        9.01272200       6.37288760      22.43332759
W       11.26590250       7.96610950      22.43332759
W       11.26590250       6.37288760      24.68646574
W        9.01272200       7.96610950      24.68646574
W        9.01272200       6.37288760      26.93959303
W       11.26590250       7.96610950      26.93959303
W       11.26590250       6.37288760      29.19273043
W        9.01272200       7.96610950      29.19273043
W       13.51908301       6.37288760      31.44582503
W       11.26590250       7.96610950      31.44582503
W       11.26590250       6.37288760      33.69886806
W        9.01272200       7.96610950      33.69886806
W        9.01272200       6.37288760      35.95186435
W       11.26590250       7.96610950      35.95186435
W       11.26590250       6.37288760      38.20492678
W        9.01272200       7.96610950      38.20492678
288
Lattice="13.519083005276505 3.9762680028551066e-17 -4.0430281816947754e-17 2.832107032207403e-17 9.559331404516637 -2.7421228983415876e-17 -9.765279892702126e-17 -9.449974793418939e-17 39.43404678314514" Properties=species:S:1:pos:R:3 vacuum_gap_Ang=3.3846153846153846 frame_index=33 pbc="T T T"
W       -0.00000000       0.00000000       1.12655590
W        2.25318050       1.59322190       1.12655590
W        2.25318050       0.00000000       3.37961833
W        4.50636100       1.59322190       3.37961833
W       -0.00000000       0.00000000       5.63261462
W        2.25318050       1.59322190       5.63261462
W        2.25318050      -0.00000000       7.88565765
W        4.50636100       1.59322190       7.88565765
W       -0.00000000       0.00000000      10.13875225
W        2.25318050       1.59322190      10.13875225
W        2.25318050      -0.00000000      12.39188965
W        4.50636100       1.59322190      12.39188965
W        4.50636100      -0.00000000      14.64501694
W        2.25318050       1.59322190      14.64501694
W        2.25318050       0.00000000      16.89815510
W       -0.00000000       1.59322190      16.89815510
W       -0.00000000       0.00000000      22.53589169
W        2.25318050       1.59322190      22.53589169
W        2.25318050      -0.00000000      24.78902984
W       -0.00000000       1.59322190      24.78902984
W       -0.00000000      -0.00000000      27.04215713
W        2.25318050       1.59322190      27.04215713
W        2.25318050       0.00000000      29.29529453
W       -0.00000000       1.59322190      29.29529453
W        4.50636100      -0.00000000      31.54838913
W        2.25318050       1.59322190      31.54838913
W        2.25318050      -0.00000000      33.80143216
W       -0.00000000       1.59322190      33.80143216
W       -0.00000000      -0.00000000      36.05442845
W        2.25318050       1.59322190      36.05442845
W        2.25318050       0.00000000      38.30749089
W       -0.00000000       1.59322190      38.30749089
W       -0.00000000       3.18644380       1.12655590
W        2.25318050       4.77966570       1.12655590
W        2.25318050       3.18644380       3.37961833
W        4.50636100       4.77966570       3.37961833
W       -0.00000000       3.18644380       5.63261462
W        2.25318050       4.77966570       5.63261462
W        2.25318050       3.18644380       7.88565765
W        4.50636100       4.77966570       7.88565765
W       -0.00000000       3.18644380      10.13875225
W        2.25318050       4.77966570      10.13875225
W        2.25318050       3.18644380      12.39188965
W        4.50636100       4.77966570      12.39188965
W        4.50636100       3.18644380      14.64501694
W        2.25318050       4.77966570      14.64501694
W        2.25318050       3.18644380      16.89815510
W       -0.00000000       4.77966570      16.89815510
W       -0.00000000       3.18644380      22.53589169
W        2.25318050       4.77966570      22.53589169
W        2.25318050       3.18644380      24.78902984
W       -0.00000000       4.77966570      24.78902984
W       -0.00000000       3.18644380      27.04215713
W        2.25318050       4.77966570      27.04215713
W        2.25318050       3.18644380      29.29529453
W       -0.00000000       4.77966570      29.29529453
W        4.50636100       3.18644380      31.54838913
W        2.25318050       4.77966570      31.54838913
W        2.25318050       3.18644380      33.80143216
W       -0.00000000       4.77966570      33.80143216
W       -0.00000000       3.18644380      36.05442845
W        2.25318050       4.77966570      36.05442845
W        2.25318050       3.18644380      38.30749089
W       -0.00000000       4.77966570      38.30749089
W       -0.00000000       6.37288760       1.12655590
W        2.25318050       7.96610950       1.12655590
W        2.25318050       6.37288760       3.37961833
W        4.50636100       7.96610950       3.37961833
W       -0.00000000       6.37288760       5.63261462
W        2.25318050       7.96610950       5.63261462
W        2.25318050       6.37288760       7.88565765
W        4.50636100       7.96610950       7.88565765
W        0.00000000       6.37288760      10.13875225
W        2.25318050       7.96610950      10.13875225
W        2.25318050       6.37288760      12.39188965
W        4.50636100       7.96610950      12.39188965
W        4.50636100       6.37288760      14.64501694
W        2.25318050       7.96610950      14.64501694
W        2.25318050       6.37288760      16.89815510
W       -0.00000000       7.96610950      16.89815510
W       -0.00000000       6.37288760      22.53589169
W        2.25318050       7.96610950      22.53589169
W        2.25318050       6.37288760      24.78902984
W       -0.00000000       7.96610950      24.78902984
W       -0.00000000       6.37288760      27.04215713
W        2.25318050       7.96610950      27.04215713
W        2.25318050       6.37288760      29.29529453
W       -0.00000000       7.96610950      29.29529453
W        4.50636100       6.37288760      31.54838913
W        2.25318050       7.96610950      31.54838913
W        2.25318050       6.37288760      33.80143216
W       -0.00000000       7.96610950      33.80143216
W       -0.00000000       6.37288760      36.05442845
W        2.25318050       7.96610950      36.05442845
W        2.25318050       6.37288760      38.30749089
W       -0.00000000       7.96610950      38.30749089
W        4.50636100      -0.00000000       1.12655590
W        6.75954150       1.59322190       1.12655590
W        6.75954150       0.00000000       3.37961833
W        9.01272200       1.59322190       3.37961833
W        4.50636100       0.00000000       5.63261462
W        6.75954150       1.59322190       5.63261462
W        6.75954150      -0.00000000       7.88565765
W        9.01272200       1.59322190       7.88565765
W        4.50636100      -0.00000000      10.13875225
W        6.75954150       1.59322190      10.13875225
W        6.75954150       0.00000000      12.39188965
W        9.01272200       1.59322190      12.39188965
W        9.01272200      -0.00000000      14.64501694
W        6.75954150       1.59322190      14.64501694
W        6.75954150       0.00000000      16.89815510
W        4.50636100       1.59322190      16.89815510
W        4.50636100      -0.00000000      22.53589169
W        6.75954150       1.59322190      22.53589169
W        6.75954150      -0.00000000      24.78902984
W        4.50636100       1.59322190      24.78902984
W        4.50636100       0.00000000      27.04215713
W        6.75954150       1.59322190      27.04215713
W        6.75954150       0.00000000      29.29529453
W        4.50636100       1.59322190      29.29529453
W        9.01272200      -0.00000000      31.54838913
W        6.75954150       1.59322190      31.54838913
W        6.75954150      -0.00000000      33.80143216
W        4.50636100       1.59322190      33.80143216
W        4.50636100       0.00000000      36.05442845
W        6.75954150       1.59322190      36.05442845
W        6.75954150      -0.00000000      38.30749089
W        4.50636100       1.59322190      38.30749089
W        4.50636100       3.18644380       1.12655590
W        6.75954150       4.77966570       1.12655590
W        6.75954150       3.18644380       3.37961833
W        9.01272200       4.77966570       3.37961833
W        4.50636100       3.18644380       5.63261462
W        6.75954150       4.77966570       5.63261462
W        6.75954150       3.18644380       7.88565765
W        9.01272200       4.77966570       7.88565765
W        4.50636100       3.18644380      10.13875225
W        6.75954150       4.77966570      10.13875225
W        6.75954150       3.18644380      12.39188965
W        9.01272200       4.77966570      12.39188965
W        9.01272200       3.18644380      14.64501694
W        6.75954150       4.77966570      14.64501694
W        6.75954150       3.18644380      16.89815510
W        4.50636100       4.77966570      16.89815510
W        4.50636100       3.18644380      22.53589169
W        6.75954150       4.77966570      22.53589169
W        6.75954150       3.18644380      24.78902984
W        4.50636100       4.77966570      24.78902984
W        4.50636100       3.18644380      27.04215713
W        6.75954150       4.77966570      27.04215713
W        6.75954150       3.18644380      29.29529453
W        4.50636100       4.77966570      29.29529453
W        9.01272200       3.18644380      31.54838913
W        6.75954150       4.77966570      31.54838913
W        6.75954150       3.18644380      33.80143216
W        4.50636100       4.77966570      33.80143216
W        4.50636100       3.18644380      36.05442845
W        6.75954150       4.77966570      36.05442845
W        6.75954150       3.18644380      38.30749089
W        4.50636100       4.77966570      38.30749089
W        4.50636100       6.37288760       1.12655590
W        6.75954150       7.96610950       1.12655590
W        6.75954150       6.37288760       3.37961833
W        9.01272200       7.96610950       3.37961833
W        4.50636100       6.37288760       5.63261462
W        6.75954150       7.96610950       5.63261462
W        6.75954150       6.37288760       7.88565765
W        9.01272200       7.96610950       7.88565765
W        4.50636100       6.37288760      10.13875225
W        6.75954150       7.96610950      10.13875225
W        6.75954150       6.37288760      12.39188965
W        9.01272200       7.96610950      12.39188965
W        9.01272200       6.37288760      14.64501694
W        6.75954150       7.96610950      14.64501694
W        6.75954150       6.37288760      16.89815510
W        4.50636100       7.96610950      16.89815510
W        4.50636100       6.37288760      22.53589169
W        6.75954150       7.96610950      22.53589169
W        6.75954150       6.37288760      24.78902984
W        4.50636100       7.96610950      24.78902984
W        4.50636100       6.37288760      27.04215713
W        6.75954150       7.96610950      27.04215713
W        6.75954150       6.37288760      29.29529453
W        4.50636100       7.96610950      29.29529453
W        9.01272200       6.37288760      31.54838913
W        6.75954150       7.96610950      31.54838913
W        6.75954150       6.37288760      33.80143216
W        4.50636100       7.96610950      33.80143216
W        4.50636100       6.37288760      36.05442845
W        6.75954150       7.96610950      36.05442845
W        6.75954150       6.37288760      38.30749089
W        4.50636100       7.96610950      38.30749089
W        9.01272200      -0.00000000       1.12655590
W       11.26590250       1.59322190       1.12655590
W       11.26590250       0.00000000       3.37961833
W       13.51908301       1.59322190       3.37961833
W        9.01272200      -0.00000000       5.63261462
W       11.26590250       1.59322190       5.63261462
W       11.26590250      -0.00000000       7.88565765
W       13.51908301       1.59322190       7.88565765
W        9.01272200      -0.00000000      10.13875225
W       11.26590250       1.59322190      10.13875225
W       11.26590250       0.00000000      12.39188965
W       13.51908301       1.59322190      12.39188965
W       13.51908301      -0.00000000      14.64501694
W       11.26590250       1.59322190      14.64501694
W       11.26590250      -0.00000000      16.89815510
W        9.01272200       1.59322190      16.89815510
W        9.01272200      -0.00000000      22.53589169
W       11.26590250       1.59322190      22.53589169
W       11.26590250       0.00000000      24.78902984
W        9.01272200       1.59322190      24.78902984
W        9.01272200       0.00000000      27.04215713
W       11.26590250       1.59322190      27.04215713
W       11.26590250       0.00000000      29.29529453
W        9.01272200       1.59322190      29.29529453
W       13.51908301       0.00000000      31.54838913
W       11.26590250       1.59322190      31.54838913
W       11.26590250      -0.00000000      33.80143216
W        9.01272200       1.59322190      33.80143216
W        9.01272200      -0.00000000      36.05442845
W       11.26590250       1.59322190      36.05442845
W       11.26590250      -0.00000000      38.30749089
W        9.01272200       1.59322190      38.30749089
W        9.01272200       3.18644380       1.12655590
W       11.26590250       4.77966570       1.12655590
W       11.26590250       3.18644380       3.37961833
W       13.51908301       4.77966570       3.37961833
W        9.01272200       3.18644380       5.63261462
W       11.26590250       4.77966570       5.63261462
W       11.26590250       3.18644380       7.88565765
W       13.51908301       4.77966570       7.88565765
W        9.01272200       3.18644380      10.13875225
W       11.26590250       4.77966570      10.13875225
W       11.26590250       3.18644380      12.39188965
W       13.51908301       4.77966570      12.39188965
W       13.51908301       3.18644380      14.64501694
W       11.26590250       4.77966570      14.64501694
W       11.26590250       3.18644380      16.89815510
W        9.01272200       4.77966570      16.89815510
W        9.01272200       3.18644380      22.53589169
W       11.26590250       4.77966570      22.53589169
W       11.26590250       3.18644380      24.78902984
W        9.01272200       4.77966570      24.78902984
W        9.01272200       3.18644380      27.04215713
W       11.26590250       4.77966570      27.04215713
W       11.26590250       3.18644380      29.29529453
W        9.01272200       4.77966570      29.29529453
W       13.51908301       3.18644380      31.54838913
W       11.26590250       4.77966570      31.54838913
W       11.26590250       3.18644380      33.80143216
W        9.01272200       4.77966570      33.80143216
W        9.01272200       3.18644380      36.05442845
W       11.26590250       4.77966570      36.05442845
W       11.26590250       3.18644380      38.30749089
W        9.01272200       4.77966570      38.30749089
W        9.01272200       6.37288760       1.12655590
W       11.26590250       7.96610950       1.12655590
W       11.26590250       6.37288760       3.37961833
W       13.51908301       7.96610950       3.37961833
W        9.01272200       6.37288760       5.63261462
W       11.26590250       7.96610950       5.63261462
W       11.26590250       6.37288760       7.88565765
W       13.51908301       7.96610950       7.88565765
W        9.01272200       6.37288760      10.13875225
W       11.26590250       7.96610950      10.13875225
W       11.26590250       6.37288760      12.39188965
W       13.51908301       7.96610950      12.39188965
W       13.51908301       6.37288760      14.64501694
W       11.26590250       7.96610950      14.64501694
W       11.26590250       6.37288760      16.89815510
W        9.01272200       7.96610950      16.89815510
W        9.01272200       6.37288760      22.53589169
W       11.26590250       7.96610950      22.53589169
W       11.26590250       6.37288760      24.78902984
W        9.01272200       7.96610950      24.78902984
W        9.01272200       6.37288760      27.04215713
W       11.26590250       7.96610950      27.04215713
W       11.26590250       6.37288760      29.29529453
W        9.01272200       7.96610950      29.29529453
W       13.51908301       6.37288760      31.54838913
W       11.26590250       7.96610950      31.54838913
W       11.26590250       6.37288760      33.80143216
W        9.01272200       7.96610950      33.80143216
W        9.01272200       6.37288760      36.05442845
W       11.26590250       7.96610950      36.05442845
W       11.26590250       6.37288760      38.30749089
W        9.01272200       7.96610950      38.30749089
288
Lattice="13.519083005276505 3.9762680028551066e-17 -4.0430281816947754e-17 2.832107032207403e-17 9.559331404516637 -2.7421228983415876e-17 -9.765279892702126e-17 -9.449974793418939e-17 39.536610885709244" Properties=species:S:1:pos:R:3 vacuum_gap_Ang=3.4871794871794872 frame_index=34 pbc="T T T"
W       -0.00000000       0.00000000       1.12655590
W        2.25318050       1.59322190       1.12655590
W        2.25318050       0.00000000       3.37961833
W        4.50636100       1.59322190       3.37961833
W       -0.00000000       0.00000000       5.63261462
W        2.25318050       1.59322190       5.63261462
W        2.25318050      -0.00000000       7.88565765
W        4.50636100       1.59322190       7.88565765
W       -0.00000000       0.00000000      10.13875225
W        2.25318050       1.59322190      10.13875225
W        2.25318050      -0.00000000      12.39188965
W        4.50636100       1.59322190      12.39188965
W        4.50636100      -0.00000000      14.64501694
W        2.25318050       1.59322190      14.64501694
W        2.25318050       0.00000000      16.89815510
W       -0.00000000       1.59322190      16.89815510
W       -0.00000000       0.00000000      22.63845579
W        2.25318050       1.59322190      22.63845579
W        2.25318050      -0.00000000      24.89159394
W       -0.00000000       1.59322190      24.89159394
W       -0.00000000      -0.00000000      27.14472124
W        2.25318050       1.59322190      27.14472124
W        2.25318050       0.00000000      29.39785863
W       -0.00000000       1.59322190      29.39785863
W        4.50636100      -0.00000000      31.65095323
W        2.25318050       1.59322190      31.65095323
W        2.25318050      -0.00000000      33.90399626
W       -0.00000000       1.59322190      33.90399626
W       -0.00000000      -0.00000000      36.15699255
W        2.25318050       1.59322190      36.15699255
W        2.25318050       0.00000000      38.41005499
W       -0.00000000       1.59322190      38.41005499
W       -0.00000000       3.18644380       1.12655590
W        2.25318050       4.77966570       1.12655590
W        2.25318050       3.18644380       3.37961833
W        4.50636100       4.77966570       3.37961833
W       -0.00000000       3.18644380       5.63261462
W        2.25318050       4.77966570       5.63261462
W        2.25318050       3.18644380       7.88565765
W        4.50636100       4.77966570       7.88565765
W       -0.00000000       3.18644380      10.13875225
W        2.25318050       4.77966570      10.13875225
W        2.25318050       3.18644380      12.39188965
W        4.50636100       4.77966570      12.39188965
W        4.50636100       3.18644380      14.64501694
W        2.25318050       4.77966570      14.64501694
W        2.25318050       3.18644380      16.89815510
W       -0.00000000       4.77966570      16.89815510
W       -0.00000000       3.18644380      22.63845579
W        2.25318050       4.77966570      22.63845579
W        2.25318050       3.18644380      24.89159394
W       -0.00000000       4.77966570      24.89159394
W       -0.00000000       3.18644380      27.14472124
W        2.25318050       4.77966570      27.14472124
W        2.25318050       3.18644380      29.39785863
W       -0.00000000       4.77966570      29.39785863
W        4.50636100       3.18644380      31.65095323
W        2.25318050       4.77966570      31.65095323
W        2.25318050       3.18644380      33.90399626
W       -0.00000000       4.77966570      33.90399626
W       -0.00000000       3.18644380      36.15699255
W        2.25318050       4.77966570      36.15699255
W        2.25318050       3.18644380      38.41005499
W       -0.00000000       4.77966570      38.41005499
W       -0.00000000       6.37288760       1.12655590
W        2.25318050       7.96610950       1.12655590
W        2.25318050       6.37288760       3.37961833
W        4.50636100       7.96610950       3.37961833
W       -0.00000000       6.37288760       5.63261462
W        2.25318050       7.96610950       5.63261462
W        2.25318050       6.37288760       7.88565765
W        4.50636100       7.96610950       7.88565765
W        0.00000000       6.37288760      10.13875225
W        2.25318050       7.96610950      10.13875225
W        2.25318050       6.37288760      12.39188965
W        4.50636100       7.96610950      12.39188965
W        4.50636100       6.37288760      14.64501694
W        2.25318050       7.96610950      14.64501694
W        2.25318050       6.37288760      16.89815510
W       -0.00000000       7.96610950      16.89815510
W       -0.00000000       6.37288760      22.63845579
W        2.25318050       7.96610950      22.63845579
W        2.25318050       6.37288760      24.89159394
W       -0.00000000       7.96610950      24.89159394
W       -0.00000000       6.37288760      27.14472124
W        2.25318050       7.96610950      27.14472124
W        2.25318050       6.37288760      29.39785863
W       -0.00000000       7.96610950      29.39785863
W        4.50636100       6.37288760      31.65095323
W        2.25318050       7.96610950      31.65095323
W        2.25318050       6.37288760      33.90399626
W       -0.00000000       7.96610950      33.90399626
W       -0.00000000       6.37288760      36.15699255
W        2.25318050       7.96610950      36.15699255
W        2.25318050       6.37288760      38.41005499
W       -0.00000000       7.96610950      38.41005499
W        4.50636100      -0.00000000       1.12655590
W        6.75954150       1.59322190       1.12655590
W        6.75954150       0.00000000       3.37961833
W        9.01272200       1.59322190       3.37961833
W        4.50636100       0.00000000       5.63261462
W        6.75954150       1.59322190       5.63261462
W        6.75954150      -0.00000000       7.88565765
W        9.01272200       1.59322190       7.88565765
W        4.50636100      -0.00000000      10.13875225
W        6.75954150       1.59322190      10.13875225
W        6.75954150       0.00000000      12.39188965
W        9.01272200       1.59322190      12.39188965
W        9.01272200      -0.00000000      14.64501694
W        6.75954150       1.59322190      14.64501694
W        6.75954150       0.00000000      16.89815510
W        4.50636100       1.59322190      16.89815510
W        4.50636100      -0.00000000      22.63845579
W        6.75954150       1.59322190      22.63845579
W        6.75954150      -0.00000000      24.89159394
W        4.50636100       1.59322190      24.89159394
W        4.50636100       0.00000000      27.14472124
W        6.75954150       1.59322190      27.14472124
W        6.75954150       0.00000000      29.39785863
W        4.50636100       1.59322190      29.39785863
W        9.01272200      -0.00000000      31.65095323
W        6.75954150       1.59322190      31.65095323
W        6.75954150      -0.00000000      33.90399626
W        4.50636100       1.59322190      33.90399626
W        4.50636100       0.00000000      36.15699255
W        6.75954150       1.59322190      36.15699255
W        6.75954150      -0.00000000      38.41005499
W        4.50636100       1.59322190      38.41005499
W        4.50636100       3.18644380       1.12655590
W        6.75954150       4.77966570       1.12655590
W        6.75954150       3.18644380       3.37961833
W        9.01272200       4.77966570       3.37961833
W        4.50636100       3.18644380       5.63261462
W        6.75954150       4.77966570       5.63261462
W        6.75954150       3.18644380       7.88565765
W        9.01272200       4.77966570       7.88565765
W        4.50636100       3.18644380      10.13875225
W        6.75954150       4.77966570      10.13875225
W        6.75954150       3.18644380      12.39188965
W        9.01272200       4.77966570      12.39188965
W        9.01272200       3.18644380      14.64501694
W        6.75954150       4.77966570      14.64501694
W        6.75954150       3.18644380      16.89815510
W        4.50636100       4.77966570      16.89815510
W        4.50636100       3.18644380      22.63845579
W        6.75954150       4.77966570      22.63845579
W        6.75954150       3.18644380      24.89159394
W        4.50636100       4.77966570      24.89159394
W        4.50636100       3.18644380      27.14472124
W        6.75954150       4.77966570      27.14472124
W        6.75954150       3.18644380      29.39785863
W        4.50636100       4.77966570      29.39785863
W        9.01272200       3.18644380      31.65095323
W        6.75954150       4.77966570      31.65095323
W        6.75954150       3.18644380      33.90399626
W        4.50636100       4.77966570      33.90399626
W        4.50636100       3.18644380      36.15699255
W        6.75954150       4.77966570      36.15699255
W        6.75954150       3.18644380      38.41005499
W        4.50636100       4.77966570      38.41005499
W        4.50636100       6.37288760       1.12655590
W        6.75954150       7.96610950       1.12655590
W        6.75954150       6.37288760       3.37961833
W        9.01272200       7.96610950       3.37961833
W        4.50636100       6.37288760       5.63261462
W        6.75954150       7.96610950       5.63261462
W        6.75954150       6.37288760       7.88565765
W        9.01272200       7.96610950       7.88565765
W        4.50636100       6.37288760      10.13875225
W        6.75954150       7.96610950      10.13875225
W        6.75954150       6.37288760      12.39188965
W        9.01272200       7.96610950      12.39188965
W        9.01272200       6.37288760      14.64501694
W        6.75954150       7.96610950      14.64501694
W        6.75954150       6.37288760      16.89815510
W        4.50636100       7.96610950      16.89815510
W        4.50636100       6.37288760      22.63845579
W        6.75954150       7.96610950      22.63845579
W        6.75954150       6.37288760      24.89159394
W        4.50636100       7.96610950      24.89159394
W        4.50636100       6.37288760      27.14472124
W        6.75954150       7.96610950      27.14472124
W        6.75954150       6.37288760      29.39785863
W        4.50636100       7.96610950      29.39785863
W        9.01272200       6.37288760      31.65095323
W        6.75954150       7.96610950      31.65095323
W        6.75954150       6.37288760      33.90399626
W        4.50636100       7.96610950      33.90399626
W        4.50636100       6.37288760      36.15699255
W        6.75954150       7.96610950      36.15699255
W        6.75954150       6.37288760      38.41005499
W        4.50636100       7.96610950      38.41005499
W        9.01272200      -0.00000000       1.12655590
W       11.26590250       1.59322190       1.12655590
W       11.26590250       0.00000000       3.37961833
W       13.51908301       1.59322190       3.37961833
W        9.01272200      -0.00000000       5.63261462
W       11.26590250       1.59322190       5.63261462
W       11.26590250      -0.00000000       7.88565765
W       13.51908301       1.59322190       7.88565765
W        9.01272200      -0.00000000      10.13875225
W       11.26590250       1.59322190      10.13875225
W       11.26590250       0.00000000      12.39188965
W       13.51908301       1.59322190      12.39188965
W       13.51908301      -0.00000000      14.64501694
W       11.26590250       1.59322190      14.64501694
W       11.26590250      -0.00000000      16.89815510
W        9.01272200       1.59322190      16.89815510
W        9.01272200      -0.00000000      22.63845579
W       11.26590250       1.59322190      22.63845579
W       11.26590250       0.00000000      24.89159394
W        9.01272200       1.59322190      24.89159394
W        9.01272200       0.00000000      27.14472124
W       11.26590250       1.59322190      27.14472124
W       11.26590250       0.00000000      29.39785863
W        9.01272200       1.59322190      29.39785863
W       13.51908301       0.00000000      31.65095323
W       11.26590250       1.59322190      31.65095323
W       11.26590250      -0.00000000      33.90399626
W        9.01272200       1.59322190      33.90399626
W        9.01272200      -0.00000000      36.15699255
W       11.26590250       1.59322190      36.15699255
W       11.26590250      -0.00000000      38.41005499
W        9.01272200       1.59322190      38.41005499
W        9.01272200       3.18644380       1.12655590
W       11.26590250       4.77966570       1.12655590
W       11.26590250       3.18644380       3.37961833
W       13.51908301       4.77966570       3.37961833
W        9.01272200       3.18644380       5.63261462
W       11.26590250       4.77966570       5.63261462
W       11.26590250       3.18644380       7.88565765
W       13.51908301       4.77966570       7.88565765
W        9.01272200       3.18644380      10.13875225
W       11.26590250       4.77966570      10.13875225
W       11.26590250       3.18644380      12.39188965
W       13.51908301       4.77966570      12.39188965
W       13.51908301       3.18644380      14.64501694
W       11.26590250       4.77966570      14.64501694
W       11.26590250       3.18644380      16.89815510
W        9.01272200       4.77966570      16.89815510
W        9.01272200       3.18644380      22.63845579
W       11.26590250       4.77966570      22.63845579
W       11.26590250       3.18644380      24.89159394
W        9.01272200       4.77966570      24.89159394
W        9.01272200       3.18644380      27.14472124
W       11.26590250       4.77966570      27.14472124
W       11.26590250       3.18644380      29.39785863
W        9.01272200       4.77966570      29.39785863
W       13.51908301       3.18644380      31.65095323
W       11.26590250       4.77966570      31.65095323
W       11.26590250       3.18644380      33.90399626
W        9.01272200       4.77966570      33.90399626
W        9.01272200       3.18644380      36.15699255
W       11.26590250       4.77966570      36.15699255
W       11.26590250       3.18644380      38.41005499
W        9.01272200       4.77966570      38.41005499
W        9.01272200       6.37288760       1.12655590
W       11.26590250       7.96610950       1.12655590
W       11.26590250       6.37288760       3.37961833
W       13.51908301       7.96610950       3.37961833
W        9.01272200       6.37288760       5.63261462
W       11.26590250       7.96610950       5.63261462
W       11.26590250       6.37288760       7.88565765
W       13.51908301       7.96610950       7.88565765
W        9.01272200       6.37288760      10.13875225
W       11.26590250       7.96610950      10.13875225
W       11.26590250       6.37288760      12.39188965
W       13.51908301       7.96610950      12.39188965
W       13.51908301       6.37288760      14.64501694
W       11.26590250       7.96610950      14.64501694
W       11.26590250       6.37288760      16.89815510
W        9.01272200       7.96610950      16.89815510
W        9.01272200       6.37288760      22.63845579
W       11.26590250       7.96610950      22.63845579
W       11.26590250       6.37288760      24.89159394
W        9.01272200       7.96610950      24.89159394
W        9.01272200       6.37288760      27.14472124
W       11.26590250       7.96610950      27.14472124
W       11.26590250       6.37288760      29.39785863
W        9.01272200       7.96610950      29.39785863
W       13.51908301       6.37288760      31.65095323
W       11.26590250       7.96610950      31.65095323
W       11.26590250       6.37288760      33.90399626
W        9.01272200       7.96610950      33.90399626
W        9.01272200       6.37288760      36.15699255
W       11.26590250       7.96610950      36.15699255
W       11.26590250       6.37288760      38.41005499
W        9.01272200       7.96610950      38.41005499
288
Lattice="13.519083005276505 3.9762680028551066e-17 -4.0430281816947754e-17 2.832107032207403e-17 9.559331404516637 -2.7421228983415876e-17 -9.765279892702126e-17 -9.449974793418939e-17 39.639174988273346" Properties=species:S:1:pos:R:3 vacuum_gap_Ang=3.5897435897435894 frame_index=35 pbc="T T T"
W       -0.00000000       0.00000000       1.12655590
W        2.25318050       1.59322190       1.12655590
W        2.25318050       0.00000000       3.37961833
W        4.50636100       1.59322190       3.37961833
W       -0.00000000       0.00000000       5.63261462
W        2.25318050       1.59322190       5.63261462
W        2.25318050      -0.00000000       7.88565765
W        4.50636100       1.59322190       7.88565765
W       -0.00000000       0.00000000      10.13875225
W        2.25318050       1.59322190      10.13875225
W        2.25318050      -0.00000000      12.39188965
W        4.50636100       1.59322190      12.39188965
W        4.50636100      -0.00000000      14.64501694
W        2.25318050       1.59322190      14.64501694
W        2.25318050       0.00000000      16.89815510
W       -0.00000000       1.59322190      16.89815510
W       -0.00000000       0.00000000      22.74101989
W        2.25318050       1.59322190      22.74101989
W        2.25318050      -0.00000000      24.99415805
W       -0.00000000       1.59322190      24.99415805
W       -0.00000000      -0.00000000      27.24728534
W        2.25318050       1.59322190      27.24728534
W        2.25318050       0.00000000      29.50042274
W       -0.00000000       1.59322190      29.50042274
W        4.50636100      -0.00000000      31.75351734
W        2.25318050       1.59322190      31.75351734
W        2.25318050      -0.00000000      34.00656037
W       -0.00000000       1.59322190      34.00656037
W       -0.00000000      -0.00000000      36.25955666
W        2.25318050       1.59322190      36.25955666
W        2.25318050       0.00000000      38.51261909
W       -0.00000000       1.59322190      38.51261909
W       -0.00000000       3.18644380       1.12655590
W        2.25318050       4.77966570       1.12655590
W        2.25318050       3.18644380       3.37961833
W        4.50636100       4.77966570       3.37961833
W       -0.00000000       3.18644380       5.63261462
W        2.25318050       4.77966570       5.63261462
W        2.25318050       3.18644380       7.88565765
W        4.50636100       4.77966570       7.88565765
W       -0.00000000       3.18644380      10.13875225
W        2.25318050       4.77966570      10.13875225
W        2.25318050       3.18644380      12.39188965
W        4.50636100       4.77966570      12.39188965
W        4.50636100       3.18644380      14.64501694
W        2.25318050       4.77966570      14.64501694
W        2.25318050       3.18644380      16.89815510
W       -0.00000000       4.77966570      16.89815510
W       -0.00000000       3.18644380      22.74101989
W        2.25318050       4.77966570      22.74101989
W        2.25318050       3.18644380      24.99415805
W       -0.00000000       4.77966570      24.99415805
W       -0.00000000       3.18644380      27.24728534
W        2.25318050       4.77966570      27.24728534
W        2.25318050       3.18644380      29.50042274
W       -0.00000000       4.77966570      29.50042274
W        4.50636100       3.18644380      31.75351734
W        2.25318050       4.77966570      31.75351734
W        2.25318050       3.18644380      34.00656037
W       -0.00000000       4.77966570      34.00656037
W       -0.00000000       3.18644380      36.25955666
W        2.25318050       4.77966570      36.25955666
W        2.25318050       3.18644380      38.51261909
W       -0.00000000       4.77966570      38.51261909
W       -0.00000000       6.37288760       1.12655590
W        2.25318050       7.96610950       1.12655590
W        2.25318050       6.37288760       3.37961833
W        4.50636100       7.96610950       3.37961833
W       -0.00000000       6.37288760       5.63261462
W        2.25318050       7.96610950       5.63261462
W        2.25318050       6.37288760       7.88565765
W        4.50636100       7.96610950       7.88565765
W        0.00000000       6.37288760      10.13875225
W        2.25318050       7.96610950      10.13875225
W        2.25318050       6.37288760      12.39188965
W        4.50636100       7.96610950      12.39188965
W        4.50636100       6.37288760      14.64501694
W        2.25318050       7.96610950      14.64501694
W        2.25318050       6.37288760      16.89815510
W       -0.00000000       7.96610950      16.89815510
W       -0.00000000       6.37288760      22.74101989
W        2.25318050       7.96610950      22.74101989
W        2.25318050       6.37288760      24.99415805
W       -0.00000000       7.96610950      24.99415805
W       -0.00000000       6.37288760      27.24728534
W        2.25318050       7.96610950      27.24728534
W        2.25318050       6.37288760      29.50042274
W       -0.00000000       7.96610950      29.50042274
W        4.50636100       6.37288760      31.75351734
W        2.25318050       7.96610950      31.75351734
W        2.25318050       6.37288760      34.00656037
W       -0.00000000       7.96610950      34.00656037
W       -0.00000000       6.37288760      36.25955666
W        2.25318050       7.96610950      36.25955666
W        2.25318050       6.37288760      38.51261909
W       -0.00000000       7.96610950      38.51261909
W        4.50636100      -0.00000000       1.12655590
W        6.75954150       1.59322190       1.12655590
W        6.75954150       0.00000000       3.37961833
W        9.01272200       1.59322190       3.37961833
W        4.50636100       0.00000000       5.63261462
W        6.75954150       1.59322190       5.63261462
W        6.75954150      -0.00000000       7.88565765
W        9.01272200       1.59322190       7.88565765
W        4.50636100      -0.00000000      10.13875225
W        6.75954150       1.59322190      10.13875225
W        6.75954150       0.00000000      12.39188965
W        9.01272200       1.59322190      12.39188965
W        9.01272200      -0.00000000      14.64501694
W        6.75954150       1.59322190      14.64501694
W        6.75954150       0.00000000      16.89815510
W        4.50636100       1.59322190      16.89815510
W        4.50636100      -0.00000000      22.74101989
W        6.75954150       1.59322190      22.74101989
W        6.75954150      -0.00000000      24.99415805
W        4.50636100       1.59322190      24.99415805
W        4.50636100       0.00000000      27.24728534
W        6.75954150       1.59322190      27.24728534
W        6.75954150       0.00000000      29.50042274
W        4.50636100       1.59322190      29.50042274
W        9.01272200      -0.00000000      31.75351734
W        6.75954150       1.59322190      31.75351734
W        6.75954150      -0.00000000      34.00656037
W        4.50636100       1.59322190      34.00656037
W        4.50636100       0.00000000      36.25955666
W        6.75954150       1.59322190      36.25955666
W        6.75954150      -0.00000000      38.51261909
W        4.50636100       1.59322190      38.51261909
W        4.50636100       3.18644380       1.12655590
W        6.75954150       4.77966570       1.12655590
W        6.75954150       3.18644380       3.37961833
W        9.01272200       4.77966570       3.37961833
W        4.50636100       3.18644380       5.63261462
W        6.75954150       4.77966570       5.63261462
W        6.75954150       3.18644380       7.88565765
W        9.01272200       4.77966570       7.88565765
W        4.50636100       3.18644380      10.13875225
W        6.75954150       4.77966570      10.13875225
W        6.75954150       3.18644380      12.39188965
W        9.01272200       4.77966570      12.39188965
W        9.01272200       3.18644380      14.64501694
W        6.75954150       4.77966570      14.64501694
W        6.75954150       3.18644380      16.89815510
W        4.50636100       4.77966570      16.89815510
W        4.50636100       3.18644380      22.74101989
W        6.75954150       4.77966570      22.74101989
W        6.75954150       3.18644380      24.99415805
W        4.50636100       4.77966570      24.99415805
W        4.50636100       3.18644380      27.24728534
W        6.75954150       4.77966570      27.24728534
W        6.75954150       3.18644380      29.50042274
W        4.50636100       4.77966570      29.50042274
W        9.01272200       3.18644380      31.75351734
W        6.75954150       4.77966570      31.75351734
W        6.75954150       3.18644380      34.00656037
W        4.50636100       4.77966570      34.00656037
W        4.50636100       3.18644380      36.25955666
W        6.75954150       4.77966570      36.25955666
W        6.75954150       3.18644380      38.51261909
W        4.50636100       4.77966570      38.51261909
W        4.50636100       6.37288760       1.12655590
W        6.75954150       7.96610950       1.12655590
W        6.75954150       6.37288760       3.37961833
W        9.01272200       7.96610950       3.37961833
W        4.50636100       6.37288760       5.63261462
W        6.75954150       7.96610950       5.63261462
W        6.75954150       6.37288760       7.88565765
W        9.01272200       7.96610950       7.88565765
W        4.50636100       6.37288760      10.13875225
W        6.75954150       7.96610950      10.13875225
W        6.75954150       6.37288760      12.39188965
W        9.01272200       7.96610950      12.39188965
W        9.01272200       6.37288760      14.64501694
W        6.75954150       7.96610950      14.64501694
W        6.75954150       6.37288760      16.89815510
W        4.50636100       7.96610950      16.89815510
W        4.50636100       6.37288760      22.74101989
W        6.75954150       7.96610950      22.74101989
W        6.75954150       6.37288760      24.99415805
W        4.50636100       7.96610950      24.99415805
W        4.50636100       6.37288760      27.24728534
W        6.75954150       7.96610950      27.24728534
W        6.75954150       6.37288760      29.50042274
W        4.50636100       7.96610950      29.50042274
W        9.01272200       6.37288760      31.75351734
W        6.75954150       7.96610950      31.75351734
W        6.75954150       6.37288760      34.00656037
W        4.50636100       7.96610950      34.00656037
W        4.50636100       6.37288760      36.25955666
W        6.75954150       7.96610950      36.25955666
W        6.75954150       6.37288760      38.51261909
W        4.50636100       7.96610950      38.51261909
W        9.01272200      -0.00000000       1.12655590
W       11.26590250       1.59322190       1.12655590
W       11.26590250       0.00000000       3.37961833
W       13.51908301       1.59322190       3.37961833
W        9.01272200      -0.00000000       5.63261462
W       11.26590250       1.59322190       5.63261462
W       11.26590250      -0.00000000       7.88565765
W       13.51908301       1.59322190       7.88565765
W        9.01272200      -0.00000000      10.13875225
W       11.26590250       1.59322190      10.13875225
W       11.26590250       0.00000000      12.39188965
W       13.51908301       1.59322190      12.39188965
W       13.51908301      -0.00000000      14.64501694
W       11.26590250       1.59322190      14.64501694
W       11.26590250      -0.00000000      16.89815510
W        9.01272200       1.59322190      16.89815510
W        9.01272200      -0.00000000      22.74101989
W       11.26590250       1.59322190      22.74101989
W       11.26590250       0.00000000      24.99415805
W        9.01272200       1.59322190      24.99415805
W        9.01272200       0.00000000      27.24728534
W       11.26590250       1.59322190      27.24728534
W       11.26590250       0.00000000      29.50042274
W        9.01272200       1.59322190      29.50042274
W       13.51908301       0.00000000      31.75351734
W       11.26590250       1.59322190      31.75351734
W       11.26590250      -0.00000000      34.00656037
W        9.01272200       1.59322190      34.00656037
W        9.01272200      -0.00000000      36.25955666
W       11.26590250       1.59322190      36.25955666
W       11.26590250      -0.00000000      38.51261909
W        9.01272200       1.59322190      38.51261909
W        9.01272200       3.18644380       1.12655590
W       11.26590250       4.77966570       1.12655590
W       11.26590250       3.18644380       3.37961833
W       13.51908301       4.77966570       3.37961833
W        9.01272200       3.18644380       5.63261462
W       11.26590250       4.77966570       5.63261462
W       11.26590250       3.18644380       7.88565765
W       13.51908301       4.77966570       7.88565765
W        9.01272200       3.18644380      10.13875225
W       11.26590250       4.77966570      10.13875225
W       11.26590250       3.18644380      12.39188965
W       13.51908301       4.77966570      12.39188965
W       13.51908301       3.18644380      14.64501694
W       11.26590250       4.77966570      14.64501694
W       11.26590250       3.18644380      16.89815510
W        9.01272200       4.77966570      16.89815510
W        9.01272200       3.18644380      22.74101989
W       11.26590250       4.77966570      22.74101989
W       11.26590250       3.18644380      24.99415805
W        9.01272200       4.77966570      24.99415805
W        9.01272200       3.18644380      27.24728534
W       11.26590250       4.77966570      27.24728534
W       11.26590250       3.18644380      29.50042274
W        9.01272200       4.77966570      29.50042274
W       13.51908301       3.18644380      31.75351734
W       11.26590250       4.77966570      31.75351734
W       11.26590250       3.18644380      34.00656037
W        9.01272200       4.77966570      34.00656037
W        9.01272200       3.18644380      36.25955666
W       11.26590250       4.77966570      36.25955666
W       11.26590250       3.18644380      38.51261909
W        9.01272200       4.77966570      38.51261909
W        9.01272200       6.37288760       1.12655590
W       11.26590250       7.96610950       1.12655590
W       11.26590250       6.37288760       3.37961833
W       13.51908301       7.96610950       3.37961833
W        9.01272200       6.37288760       5.63261462
W       11.26590250       7.96610950       5.63261462
W       11.26590250       6.37288760       7.88565765
W       13.51908301       7.96610950       7.88565765
W        9.01272200       6.37288760      10.13875225
W       11.26590250       7.96610950      10.13875225
W       11.26590250       6.37288760      12.39188965
W       13.51908301       7.96610950      12.39188965
W       13.51908301       6.37288760      14.64501694
W       11.26590250       7.96610950      14.64501694
W       11.26590250       6.37288760      16.89815510
W        9.01272200       7.96610950      16.89815510
W        9.01272200       6.37288760      22.74101989
W       11.26590250       7.96610950      22.74101989
W       11.26590250       6.37288760      24.99415805
W        9.01272200       7.96610950      24.99415805
W        9.01272200       6.37288760      27.24728534
W       11.26590250       7.96610950      27.24728534
W       11.26590250       6.37288760      29.50042274
W        9.01272200       7.96610950      29.50042274
W       13.51908301       6.37288760      31.75351734
W       11.26590250       7.96610950      31.75351734
W       11.26590250       6.37288760      34.00656037
W        9.01272200       7.96610950      34.00656037
W        9.01272200       6.37288760      36.25955666
W       11.26590250       7.96610950      36.25955666
W       11.26590250       6.37288760      38.51261909
W        9.01272200       7.96610950      38.51261909
288
Lattice="13.519083005276505 3.9762680028551066e-17 -4.0430281816947754e-17 2.832107032207403e-17 9.559331404516637 -2.7421228983415876e-17 -9.765279892702126e-17 -9.449974793418939e-17 39.74173909083745" Properties=species:S:1:pos:R:3 vacuum_gap_Ang=3.692307692307692 frame_index=36 pbc="T T T"
W       -0.00000000       0.00000000       1.12655590
W        2.25318050       1.59322190       1.12655590
W        2.25318050       0.00000000       3.37961833
W        4.50636100       1.59322190       3.37961833
W       -0.00000000       0.00000000       5.63261462
W        2.25318050       1.59322190       5.63261462
W        2.25318050      -0.00000000       7.88565765
W        4.50636100       1.59322190       7.88565765
W       -0.00000000       0.00000000      10.13875225
W        2.25318050       1.59322190      10.13875225
W        2.25318050      -0.00000000      12.39188965
W        4.50636100       1.59322190      12.39188965
W        4.50636100      -0.00000000      14.64501694
W        2.25318050       1.59322190      14.64501694
W        2.25318050       0.00000000      16.89815510
W       -0.00000000       1.59322190      16.89815510
W       -0.00000000       0.00000000      22.84358400
W        2.25318050       1.59322190      22.84358400
W        2.25318050      -0.00000000      25.09672215
W       -0.00000000       1.59322190      25.09672215
W       -0.00000000      -0.00000000      27.34984944
W        2.25318050       1.59322190      27.34984944
W        2.25318050       0.00000000      29.60298684
W       -0.00000000       1.59322190      29.60298684
W        4.50636100      -0.00000000      31.85608144
W        2.25318050       1.59322190      31.85608144
W        2.25318050      -0.00000000      34.10912447
W       -0.00000000       1.59322190      34.10912447
W       -0.00000000      -0.00000000      36.36212076
W        2.25318050       1.59322190      36.36212076
W        2.25318050       0.00000000      38.61518319
W       -0.00000000       1.59322190      38.61518319
W       -0.00000000       3.18644380       1.12655590
W        2.25318050       4.77966570       1.12655590
W        2.25318050       3.18644380       3.37961833
W        4.50636100       4.77966570       3.37961833
W       -0.00000000       3.18644380       5.63261462
W        2.25318050       4.77966570       5.63261462
W        2.25318050       3.18644380       7.88565765
W        4.50636100       4.77966570       7.88565765
W       -0.00000000       3.18644380      10.13875225
W        2.25318050       4.77966570      10.13875225
W        2.25318050       3.18644380      12.39188965
W        4.50636100       4.77966570      12.39188965
W        4.50636100       3.18644380      14.64501694
W        2.25318050       4.77966570      14.64501694
W        2.25318050       3.18644380      16.89815510
W       -0.00000000       4.77966570      16.89815510
W       -0.00000000       3.18644380      22.84358400
W        2.25318050       4.77966570      22.84358400
W        2.25318050       3.18644380      25.09672215
W       -0.00000000       4.77966570      25.09672215
W       -0.00000000       3.18644380      27.34984944
W        2.25318050       4.77966570      27.34984944
W        2.25318050       3.18644380      29.60298684
W       -0.00000000       4.77966570      29.60298684
W        4.50636100       3.18644380      31.85608144
W        2.25318050       4.77966570      31.85608144
W        2.25318050       3.18644380      34.10912447
W       -0.00000000       4.77966570      34.10912447
W       -0.00000000       3.18644380      36.36212076
W        2.25318050       4.77966570      36.36212076
W        2.25318050       3.18644380      38.61518319
W       -0.00000000       4.77966570      38.61518319
W       -0.00000000       6.37288760       1.12655590
W        2.25318050       7.96610950       1.12655590
W        2.25318050       6.37288760       3.37961833
W        4.50636100       7.96610950       3.37961833
W       -0.00000000       6.37288760       5.63261462
W        2.25318050       7.96610950       5.63261462
W        2.25318050       6.37288760       7.88565765
W        4.50636100       7.96610950       7.88565765
W        0.00000000       6.37288760      10.13875225
W        2.25318050       7.96610950      10.13875225
W        2.25318050       6.37288760      12.39188965
W        4.50636100       7.96610950      12.39188965
W        4.50636100       6.37288760      14.64501694
W        2.25318050       7.96610950      14.64501694
W        2.25318050       6.37288760      16.89815510
W       -0.00000000       7.96610950      16.89815510
W       -0.00000000       6.37288760      22.84358400
W        2.25318050       7.96610950      22.84358400
W        2.25318050       6.37288760      25.09672215
W       -0.00000000       7.96610950      25.09672215
W       -0.00000000       6.37288760      27.34984944
W        2.25318050       7.96610950      27.34984944
W        2.25318050       6.37288760      29.60298684
W       -0.00000000       7.96610950      29.60298684
W        4.50636100       6.37288760      31.85608144
W        2.25318050       7.96610950      31.85608144
W        2.25318050       6.37288760      34.10912447
W       -0.00000000       7.96610950      34.10912447
W       -0.00000000       6.37288760      36.36212076
W        2.25318050       7.96610950      36.36212076
W        2.25318050       6.37288760      38.61518319
W       -0.00000000       7.96610950      38.61518319
W        4.50636100      -0.00000000       1.12655590
W        6.75954150       1.59322190       1.12655590
W        6.75954150       0.00000000       3.37961833
W        9.01272200       1.59322190       3.37961833
W        4.50636100       0.00000000       5.63261462
W        6.75954150       1.59322190       5.63261462
W        6.75954150      -0.00000000       7.88565765
W        9.01272200       1.59322190       7.88565765
W        4.50636100      -0.00000000      10.13875225
W        6.75954150       1.59322190      10.13875225
W        6.75954150       0.00000000      12.39188965
W        9.01272200       1.59322190      12.39188965
W        9.01272200      -0.00000000      14.64501694
W        6.75954150       1.59322190      14.64501694
W        6.75954150       0.00000000      16.89815510
W        4.50636100       1.59322190      16.89815510
W        4.50636100      -0.00000000      22.84358400
W        6.75954150       1.59322190      22.84358400
W        6.75954150      -0.00000000      25.09672215
W        4.50636100       1.59322190      25.09672215
W        4.50636100       0.00000000      27.34984944
W        6.75954150       1.59322190      27.34984944
W        6.75954150       0.00000000      29.60298684
W        4.50636100       1.59322190      29.60298684
W        9.01272200      -0.00000000      31.85608144
W        6.75954150       1.59322190      31.85608144
W        6.75954150      -0.00000000      34.10912447
W        4.50636100       1.59322190      34.10912447
W        4.50636100       0.00000000      36.36212076
W        6.75954150       1.59322190      36.36212076
W        6.75954150      -0.00000000      38.61518319
W        4.50636100       1.59322190      38.61518319
W        4.50636100       3.18644380       1.12655590
W        6.75954150       4.77966570       1.12655590
W        6.75954150       3.18644380       3.37961833
W        9.01272200       4.77966570       3.37961833
W        4.50636100       3.18644380       5.63261462
W        6.75954150       4.77966570       5.63261462
W        6.75954150       3.18644380       7.88565765
W        9.01272200       4.77966570       7.88565765
W        4.50636100       3.18644380      10.13875225
W        6.75954150       4.77966570      10.13875225
W        6.75954150       3.18644380      12.39188965
W        9.01272200       4.77966570      12.39188965
W        9.01272200       3.18644380      14.64501694
W        6.75954150       4.77966570      14.64501694
W        6.75954150       3.18644380      16.89815510
W        4.50636100       4.77966570      16.89815510
W        4.50636100       3.18644380      22.84358400
W        6.75954150       4.77966570      22.84358400
W        6.75954150       3.18644380      25.09672215
W        4.50636100       4.77966570      25.09672215
W        4.50636100       3.18644380      27.34984944
W        6.75954150       4.77966570      27.34984944
W        6.75954150       3.18644380      29.60298684
W        4.50636100       4.77966570      29.60298684
W        9.01272200       3.18644380      31.85608144
W        6.75954150       4.77966570      31.85608144
W        6.75954150       3.18644380      34.10912447
W        4.50636100       4.77966570      34.10912447
W        4.50636100       3.18644380      36.36212076
W        6.75954150       4.77966570      36.36212076
W        6.75954150       3.18644380      38.61518319
W        4.50636100       4.77966570      38.61518319
W        4.50636100       6.37288760       1.12655590
W        6.75954150       7.96610950       1.12655590
W        6.75954150       6.37288760       3.37961833
W        9.01272200       7.96610950       3.37961833
W        4.50636100       6.37288760       5.63261462
W        6.75954150       7.96610950       5.63261462
W        6.75954150       6.37288760       7.88565765
W        9.01272200       7.96610950       7.88565765
W        4.50636100       6.37288760      10.13875225
W        6.75954150       7.96610950      10.13875225
W        6.75954150       6.37288760      12.39188965
W        9.01272200       7.96610950      12.39188965
W        9.01272200       6.37288760      14.64501694
W        6.75954150       7.96610950      14.64501694
W        6.75954150       6.37288760      16.89815510
W        4.50636100       7.96610950      16.89815510
W        4.50636100       6.37288760      22.84358400
W        6.75954150       7.96610950      22.84358400
W        6.75954150       6.37288760      25.09672215
W        4.50636100       7.96610950      25.09672215
W        4.50636100       6.37288760      27.34984944
W        6.75954150       7.96610950      27.34984944
W        6.75954150       6.37288760      29.60298684
W        4.50636100       7.96610950      29.60298684
W        9.01272200       6.37288760      31.85608144
W        6.75954150       7.96610950      31.85608144
W        6.75954150       6.37288760      34.10912447
W        4.50636100       7.96610950      34.10912447
W        4.50636100       6.37288760      36.36212076
W        6.75954150       7.96610950      36.36212076
W        6.75954150       6.37288760      38.61518319
W        4.50636100       7.96610950      38.61518319
W        9.01272200      -0.00000000       1.12655590
W       11.26590250       1.59322190       1.12655590
W       11.26590250       0.00000000       3.37961833
W       13.51908301       1.59322190       3.37961833
W        9.01272200      -0.00000000       5.63261462
W       11.26590250       1.59322190       5.63261462
W       11.26590250      -0.00000000       7.88565765
W       13.51908301       1.59322190       7.88565765
W        9.01272200      -0.00000000      10.13875225
W       11.26590250       1.59322190      10.13875225
W       11.26590250       0.00000000      12.39188965
W       13.51908301       1.59322190      12.39188965
W       13.51908301      -0.00000000      14.64501694
W       11.26590250       1.59322190      14.64501694
W       11.26590250      -0.00000000      16.89815510
W        9.01272200       1.59322190      16.89815510
W        9.01272200      -0.00000000      22.84358400
W       11.26590250       1.59322190      22.84358400
W       11.26590250       0.00000000      25.09672215
W        9.01272200       1.59322190      25.09672215
W        9.01272200       0.00000000      27.34984944
W       11.26590250       1.59322190      27.34984944
W       11.26590250       0.00000000      29.60298684
W        9.01272200       1.59322190      29.60298684
W       13.51908301       0.00000000      31.85608144
W       11.26590250       1.59322190      31.85608144
W       11.26590250      -0.00000000      34.10912447
W        9.01272200       1.59322190      34.10912447
W        9.01272200      -0.00000000      36.36212076
W       11.26590250       1.59322190      36.36212076
W       11.26590250      -0.00000000      38.61518319
W        9.01272200       1.59322190      38.61518319
W        9.01272200       3.18644380       1.12655590
W       11.26590250       4.77966570       1.12655590
W       11.26590250       3.18644380       3.37961833
W       13.51908301       4.77966570       3.37961833
W        9.01272200       3.18644380       5.63261462
W       11.26590250       4.77966570       5.63261462
W       11.26590250       3.18644380       7.88565765
W       13.51908301       4.77966570       7.88565765
W        9.01272200       3.18644380      10.13875225
W       11.26590250       4.77966570      10.13875225
W       11.26590250       3.18644380      12.39188965
W       13.51908301       4.77966570      12.39188965
W       13.51908301       3.18644380      14.64501694
W       11.26590250       4.77966570      14.64501694
W       11.26590250       3.18644380      16.89815510
W        9.01272200       4.77966570      16.89815510
W        9.01272200       3.18644380      22.84358400
W       11.26590250       4.77966570      22.84358400
W       11.26590250       3.18644380      25.09672215
W        9.01272200       4.77966570      25.09672215
W        9.01272200       3.18644380      27.34984944
W       11.26590250       4.77966570      27.34984944
W       11.26590250       3.18644380      29.60298684
W        9.01272200       4.77966570      29.60298684
W       13.51908301       3.18644380      31.85608144
W       11.26590250       4.77966570      31.85608144
W       11.26590250       3.18644380      34.10912447
W        9.01272200       4.77966570      34.10912447
W        9.01272200       3.18644380      36.36212076
W       11.26590250       4.77966570      36.36212076
W       11.26590250       3.18644380      38.61518319
W        9.01272200       4.77966570      38.61518319
W        9.01272200       6.37288760       1.12655590
W       11.26590250       7.96610950       1.12655590
W       11.26590250       6.37288760       3.37961833
W       13.51908301       7.96610950       3.37961833
W        9.01272200       6.37288760       5.63261462
W       11.26590250       7.96610950       5.63261462
W       11.26590250       6.37288760       7.88565765
W       13.51908301       7.96610950       7.88565765
W        9.01272200       6.37288760      10.13875225
W       11.26590250       7.96610950      10.13875225
W       11.26590250       6.37288760      12.39188965
W       13.51908301       7.96610950      12.39188965
W       13.51908301       6.37288760      14.64501694
W       11.26590250       7.96610950      14.64501694
W       11.26590250       6.37288760      16.89815510
W        9.01272200       7.96610950      16.89815510
W        9.01272200       6.37288760      22.84358400
W       11.26590250       7.96610950      22.84358400
W       11.26590250       6.37288760      25.09672215
W        9.01272200       7.96610950      25.09672215
W        9.01272200       6.37288760      27.34984944
W       11.26590250       7.96610950      27.34984944
W       11.26590250       6.37288760      29.60298684
W        9.01272200       7.96610950      29.60298684
W       13.51908301       6.37288760      31.85608144
W       11.26590250       7.96610950      31.85608144
W       11.26590250       6.37288760      34.10912447
W        9.01272200       7.96610950      34.10912447
W        9.01272200       6.37288760      36.36212076
W       11.26590250       7.96610950      36.36212076
W       11.26590250       6.37288760      38.61518319
W        9.01272200       7.96610950      38.61518319
288
Lattice="13.519083005276505 3.9762680028551066e-17 -4.0430281816947754e-17 2.832107032207403e-17 9.559331404516637 -2.7421228983415876e-17 -9.765279892702126e-17 -9.449974793418939e-17 39.84430319340155" Properties=species:S:1:pos:R:3 vacuum_gap_Ang=3.7948717948717947 frame_index=37 pbc="T T T"
W       -0.00000000       0.00000000       1.12655590
W        2.25318050       1.59322190       1.12655590
W        2.25318050       0.00000000       3.37961833
W        4.50636100       1.59322190       3.37961833
W       -0.00000000       0.00000000       5.63261462
W        2.25318050       1.59322190       5.63261462
W        2.25318050      -0.00000000       7.88565765
W        4.50636100       1.59322190       7.88565765
W       -0.00000000       0.00000000      10.13875225
W        2.25318050       1.59322190      10.13875225
W        2.25318050      -0.00000000      12.39188965
W        4.50636100       1.59322190      12.39188965
W        4.50636100      -0.00000000      14.64501694
W        2.25318050       1.59322190      14.64501694
W        2.25318050       0.00000000      16.89815510
W       -0.00000000       1.59322190      16.89815510
W       -0.00000000       0.00000000      22.94614810
W        2.25318050       1.59322190      22.94614810
W        2.25318050      -0.00000000      25.19928625
W       -0.00000000       1.59322190      25.19928625
W       -0.00000000      -0.00000000      27.45241355
W        2.25318050       1.59322190      27.45241355
W        2.25318050       0.00000000      29.70555094
W       -0.00000000       1.59322190      29.70555094
W        4.50636100      -0.00000000      31.95864554
W        2.25318050       1.59322190      31.95864554
W        2.25318050      -0.00000000      34.21168857
W       -0.00000000       1.59322190      34.21168857
W       -0.00000000      -0.00000000      36.46468486
W        2.25318050       1.59322190      36.46468486
W        2.25318050       0.00000000      38.71774730
W       -0.00000000       1.59322190      38.71774730
W       -0.00000000       3.18644380       1.12655590
W        2.25318050       4.77966570       1.12655590
W        2.25318050       3.18644380       3.37961833
W        4.50636100       4.77966570       3.37961833
W       -0.00000000       3.18644380       5.63261462
W        2.25318050       4.77966570       5.63261462
W        2.25318050       3.18644380       7.88565765
W        4.50636100       4.77966570       7.88565765
W       -0.00000000       3.18644380      10.13875225
W        2.25318050       4.77966570      10.13875225
W        2.25318050       3.18644380      12.39188965
W        4.50636100       4.77966570      12.39188965
W        4.50636100       3.18644380      14.64501694
W        2.25318050       4.77966570      14.64501694
W        2.25318050       3.18644380      16.89815510
W       -0.00000000       4.77966570      16.89815510
W       -0.00000000       3.18644380      22.94614810
W        2.25318050       4.77966570      22.94614810
W        2.25318050       3.18644380      25.19928625
W       -0.00000000       4.77966570      25.19928625
W       -0.00000000       3.18644380      27.45241355
W        2.25318050       4.77966570      27.45241355
W        2.25318050       3.18644380      29.70555094
W       -0.00000000       4.77966570      29.70555094
W        4.50636100       3.18644380      31.95864554
W        2.25318050       4.77966570      31.95864554
W        2.25318050       3.18644380      34.21168857
W       -0.00000000       4.77966570      34.21168857
W       -0.00000000       3.18644380      36.46468486
W        2.25318050       4.77966570      36.46468486
W        2.25318050       3.18644380      38.71774730
W       -0.00000000       4.77966570      38.71774730
W       -0.00000000       6.37288760       1.12655590
W        2.25318050       7.96610950       1.12655590
W        2.25318050       6.37288760       3.37961833
W        4.50636100       7.96610950       3.37961833
W       -0.00000000       6.37288760       5.63261462
W        2.25318050       7.96610950       5.63261462
W        2.25318050       6.37288760       7.88565765
W        4.50636100       7.96610950       7.88565765
W        0.00000000       6.37288760      10.13875225
W        2.25318050       7.96610950      10.13875225
W        2.25318050       6.37288760      12.39188965
W        4.50636100       7.96610950      12.39188965
W        4.50636100       6.37288760      14.64501694
W        2.25318050       7.96610950      14.64501694
W        2.25318050       6.37288760      16.89815510
W       -0.00000000       7.96610950      16.89815510
W       -0.00000000       6.37288760      22.94614810
W        2.25318050       7.96610950      22.94614810
W        2.25318050       6.37288760      25.19928625
W       -0.00000000       7.96610950      25.19928625
W       -0.00000000       6.37288760      27.45241355
W        2.25318050       7.96610950      27.45241355
W        2.25318050       6.37288760      29.70555094
W       -0.00000000       7.96610950      29.70555094
W        4.50636100       6.37288760      31.95864554
W        2.25318050       7.96610950      31.95864554
W        2.25318050       6.37288760      34.21168857
W       -0.00000000       7.96610950      34.21168857
W       -0.00000000       6.37288760      36.46468486
W        2.25318050       7.96610950      36.46468486
W        2.25318050       6.37288760      38.71774730
W       -0.00000000       7.96610950      38.71774730
W        4.50636100      -0.00000000       1.12655590
W        6.75954150       1.59322190       1.12655590
W        6.75954150       0.00000000       3.37961833
W        9.01272200       1.59322190       3.37961833
W        4.50636100       0.00000000       5.63261462
W        6.75954150       1.59322190       5.63261462
W        6.75954150      -0.00000000       7.88565765
W        9.01272200       1.59322190       7.88565765
W        4.50636100      -0.00000000      10.13875225
W        6.75954150       1.59322190      10.13875225
W        6.75954150       0.00000000      12.39188965
W        9.01272200       1.59322190      12.39188965
W        9.01272200      -0.00000000      14.64501694
W        6.75954150       1.59322190      14.64501694
W        6.75954150       0.00000000      16.89815510
W        4.50636100       1.59322190      16.89815510
W        4.50636100      -0.00000000      22.94614810
W        6.75954150       1.59322190      22.94614810
W        6.75954150      -0.00000000      25.19928625
W        4.50636100       1.59322190      25.19928625
W        4.50636100       0.00000000      27.45241355
W        6.75954150       1.59322190      27.45241355
W        6.75954150       0.00000000      29.70555094
W        4.50636100       1.59322190      29.70555094
W        9.01272200      -0.00000000      31.95864554
W        6.75954150       1.59322190      31.95864554
W        6.75954150      -0.00000000      34.21168857
W        4.50636100       1.59322190      34.21168857
W        4.50636100       0.00000000      36.46468486
W        6.75954150       1.59322190      36.46468486
W        6.75954150      -0.00000000      38.71774730
W        4.50636100       1.59322190      38.71774730
W        4.50636100       3.18644380       1.12655590
W        6.75954150       4.77966570       1.12655590
W        6.75954150       3.18644380       3.37961833
W        9.01272200       4.77966570       3.37961833
W        4.50636100       3.18644380       5.63261462
W        6.75954150       4.77966570       5.63261462
W        6.75954150       3.18644380       7.88565765
W        9.01272200       4.77966570       7.88565765
W        4.50636100       3.18644380      10.13875225
W        6.75954150       4.77966570      10.13875225
W        6.75954150       3.18644380      12.39188965
W        9.01272200       4.77966570      12.39188965
W        9.01272200       3.18644380      14.64501694
W        6.75954150       4.77966570      14.64501694
W        6.75954150       3.18644380      16.89815510
W        4.50636100       4.77966570      16.89815510
W        4.50636100       3.18644380      22.94614810
W        6.75954150       4.77966570      22.94614810
W        6.75954150       3.18644380      25.19928625
W        4.50636100       4.77966570      25.19928625
W        4.50636100       3.18644380      27.45241355
W        6.75954150       4.77966570      27.45241355
W        6.75954150       3.18644380      29.70555094
W        4.50636100       4.77966570      29.70555094
W        9.01272200       3.18644380      31.95864554
W        6.75954150       4.77966570      31.95864554
W        6.75954150       3.18644380      34.21168857
W        4.50636100       4.77966570      34.21168857
W        4.50636100       3.18644380      36.46468486
W        6.75954150       4.77966570      36.46468486
W        6.75954150       3.18644380      38.71774730
W        4.50636100       4.77966570      38.71774730
W        4.50636100       6.37288760       1.12655590
W        6.75954150       7.96610950       1.12655590
W        6.75954150       6.37288760       3.37961833
W        9.01272200       7.96610950       3.37961833
W        4.50636100       6.37288760       5.63261462
W        6.75954150       7.96610950       5.63261462
W        6.75954150       6.37288760       7.88565765
W        9.01272200       7.96610950       7.88565765
W        4.50636100       6.37288760      10.13875225
W        6.75954150       7.96610950      10.13875225
W        6.75954150       6.37288760      12.39188965
W        9.01272200       7.96610950      12.39188965
W        9.01272200       6.37288760      14.64501694
W        6.75954150       7.96610950      14.64501694
W        6.75954150       6.37288760      16.89815510
W        4.50636100       7.96610950      16.89815510
W        4.50636100       6.37288760      22.94614810
W        6.75954150       7.96610950      22.94614810
W        6.75954150       6.37288760      25.19928625
W        4.50636100       7.96610950      25.19928625
W        4.50636100       6.37288760      27.45241355
W        6.75954150       7.96610950      27.45241355
W        6.75954150       6.37288760      29.70555094
W        4.50636100       7.96610950      29.70555094
W        9.01272200       6.37288760      31.95864554
W        6.75954150       7.96610950      31.95864554
W        6.75954150       6.37288760      34.21168857
W        4.50636100       7.96610950      34.21168857
W        4.50636100       6.37288760      36.46468486
W        6.75954150       7.96610950      36.46468486
W        6.75954150       6.37288760      38.71774730
W        4.50636100       7.96610950      38.71774730
W        9.01272200      -0.00000000       1.12655590
W       11.26590250       1.59322190       1.12655590
W       11.26590250       0.00000000       3.37961833
W       13.51908301       1.59322190       3.37961833
W        9.01272200      -0.00000000       5.63261462
W       11.26590250       1.59322190       5.63261462
W       11.26590250      -0.00000000       7.88565765
W       13.51908301       1.59322190       7.88565765
W        9.01272200      -0.00000000      10.13875225
W       11.26590250       1.59322190      10.13875225
W       11.26590250       0.00000000      12.39188965
W       13.51908301       1.59322190      12.39188965
W       13.51908301      -0.00000000      14.64501694
W       11.26590250       1.59322190      14.64501694
W       11.26590250      -0.00000000      16.89815510
W        9.01272200       1.59322190      16.89815510
W        9.01272200      -0.00000000      22.94614810
W       11.26590250       1.59322190      22.94614810
W       11.26590250       0.00000000      25.19928625
W        9.01272200       1.59322190      25.19928625
W        9.01272200       0.00000000      27.45241355
W       11.26590250       1.59322190      27.45241355
W       11.26590250       0.00000000      29.70555094
W        9.01272200       1.59322190      29.70555094
W       13.51908301       0.00000000      31.95864554
W       11.26590250       1.59322190      31.95864554
W       11.26590250      -0.00000000      34.21168857
W        9.01272200       1.59322190      34.21168857
W        9.01272200      -0.00000000      36.46468486
W       11.26590250       1.59322190      36.46468486
W       11.26590250      -0.00000000      38.71774730
W        9.01272200       1.59322190      38.71774730
W        9.01272200       3.18644380       1.12655590
W       11.26590250       4.77966570       1.12655590
W       11.26590250       3.18644380       3.37961833
W       13.51908301       4.77966570       3.37961833
W        9.01272200       3.18644380       5.63261462
W       11.26590250       4.77966570       5.63261462
W       11.26590250       3.18644380       7.88565765
W       13.51908301       4.77966570       7.88565765
W        9.01272200       3.18644380      10.13875225
W       11.26590250       4.77966570      10.13875225
W       11.26590250       3.18644380      12.39188965
W       13.51908301       4.77966570      12.39188965
W       13.51908301       3.18644380      14.64501694
W       11.26590250       4.77966570      14.64501694
W       11.26590250       3.18644380      16.89815510
W        9.01272200       4.77966570      16.89815510
W        9.01272200       3.18644380      22.94614810
W       11.26590250       4.77966570      22.94614810
W       11.26590250       3.18644380      25.19928625
W        9.01272200       4.77966570      25.19928625
W        9.01272200       3.18644380      27.45241355
W       11.26590250       4.77966570      27.45241355
W       11.26590250       3.18644380      29.70555094
W        9.01272200       4.77966570      29.70555094
W       13.51908301       3.18644380      31.95864554
W       11.26590250       4.77966570      31.95864554
W       11.26590250       3.18644380      34.21168857
W        9.01272200       4.77966570      34.21168857
W        9.01272200       3.18644380      36.46468486
W       11.26590250       4.77966570      36.46468486
W       11.26590250       3.18644380      38.71774730
W        9.01272200       4.77966570      38.71774730
W        9.01272200       6.37288760       1.12655590
W       11.26590250       7.96610950       1.12655590
W       11.26590250       6.37288760       3.37961833
W       13.51908301       7.96610950       3.37961833
W        9.01272200       6.37288760       5.63261462
W       11.26590250       7.96610950       5.63261462
W       11.26590250       6.37288760       7.88565765
W       13.51908301       7.96610950       7.88565765
W        9.01272200       6.37288760      10.13875225
W       11.26590250       7.96610950      10.13875225
W       11.26590250       6.37288760      12.39188965
W       13.51908301       7.96610950      12.39188965
W       13.51908301       6.37288760      14.64501694
W       11.26590250       7.96610950      14.64501694
W       11.26590250       6.37288760      16.89815510
W        9.01272200       7.96610950      16.89815510
W        9.01272200       6.37288760      22.94614810
W       11.26590250       7.96610950      22.94614810
W       11.26590250       6.37288760      25.19928625
W        9.01272200       7.96610950      25.19928625
W        9.01272200       6.37288760      27.45241355
W       11.26590250       7.96610950      27.45241355
W       11.26590250       6.37288760      29.70555094
W        9.01272200       7.96610950      29.70555094
W       13.51908301       6.37288760      31.95864554
W       11.26590250       7.96610950      31.95864554
W       11.26590250       6.37288760      34.21168857
W        9.01272200       7.96610950      34.21168857
W        9.01272200       6.37288760      36.46468486
W       11.26590250       7.96610950      36.46468486
W       11.26590250       6.37288760      38.71774730
W        9.01272200       7.96610950      38.71774730
288
Lattice="13.519083005276505 3.9762680028551066e-17 -4.0430281816947754e-17 2.832107032207403e-17 9.559331404516637 -2.7421228983415876e-17 -9.765279892702126e-17 -9.449974793418939e-17 39.94686729596565" Properties=species:S:1:pos:R:3 vacuum_gap_Ang=3.8974358974358974 frame_index=38 pbc="T T T"
W       -0.00000000       0.00000000       1.12655590
W        2.25318050       1.59322190       1.12655590
W        2.25318050       0.00000000       3.37961833
W        4.50636100       1.59322190       3.37961833
W       -0.00000000       0.00000000       5.63261462
W        2.25318050       1.59322190       5.63261462
W        2.25318050      -0.00000000       7.88565765
W        4.50636100       1.59322190       7.88565765
W       -0.00000000       0.00000000      10.13875225
W        2.25318050       1.59322190      10.13875225
W        2.25318050      -0.00000000      12.39188965
W        4.50636100       1.59322190      12.39188965
W        4.50636100      -0.00000000      14.64501694
W        2.25318050       1.59322190      14.64501694
W        2.25318050       0.00000000      16.89815510
W       -0.00000000       1.59322190      16.89815510
W       -0.00000000       0.00000000      23.04871220
W        2.25318050       1.59322190      23.04871220
W        2.25318050      -0.00000000      25.30185035
W       -0.00000000       1.59322190      25.30185035
W       -0.00000000      -0.00000000      27.55497765
W        2.25318050       1.59322190      27.55497765
W        2.25318050       0.00000000      29.80811504
W       -0.00000000       1.59322190      29.80811504
W        4.50636100      -0.00000000      32.06120965
W        2.25318050       1.59322190      32.06120965
W        2.25318050      -0.00000000      34.31425267
W       -0.00000000       1.59322190      34.31425267
W       -0.00000000      -0.00000000      36.56724896
W        2.25318050       1.59322190      36.56724896
W        2.25318050       0.00000000      38.82031140
W       -0.00000000       1.59322190      38.82031140
W       -0.00000000       3.18644380       1.12655590
W        2.25318050       4.77966570       1.12655590
W        2.25318050       3.18644380       3.37961833
W        4.50636100       4.77966570       3.37961833
W       -0.00000000       3.18644380       5.63261462
W        2.25318050       4.77966570       5.63261462
W        2.25318050       3.18644380       7.88565765
W        4.50636100       4.77966570       7.88565765
W       -0.00000000       3.18644380      10.13875225
W        2.25318050       4.77966570      10.13875225
W        2.25318050       3.18644380      12.39188965
W        4.50636100       4.77966570      12.39188965
W        4.50636100       3.18644380      14.64501694
W        2.25318050       4.77966570      14.64501694
W        2.25318050       3.18644380      16.89815510
W       -0.00000000       4.77966570      16.89815510
W       -0.00000000       3.18644380      23.04871220
W        2.25318050       4.77966570      23.04871220
W        2.25318050       3.18644380      25.30185035
W       -0.00000000       4.77966570      25.30185035
W       -0.00000000       3.18644380      27.55497765
W        2.25318050       4.77966570      27.55497765
W        2.25318050       3.18644380      29.80811504
W       -0.00000000       4.77966570      29.80811504
W        4.50636100       3.18644380      32.06120965
W        2.25318050       4.77966570      32.06120965
W        2.25318050       3.18644380      34.31425267
W       -0.00000000       4.77966570      34.31425267
W       -0.00000000       3.18644380      36.56724896
W        2.25318050       4.77966570      36.56724896
W        2.25318050       3.18644380      38.82031140
W       -0.00000000       4.77966570      38.82031140
W       -0.00000000       6.37288760       1.12655590
W        2.25318050       7.96610950       1.12655590
W        2.25318050       6.37288760       3.37961833
W        4.50636100       7.96610950       3.37961833
W       -0.00000000       6.37288760       5.63261462
W        2.25318050       7.96610950       5.63261462
W        2.25318050       6.37288760       7.88565765
W        4.50636100       7.96610950       7.88565765
W        0.00000000       6.37288760      10.13875225
W        2.25318050       7.96610950      10.13875225
W        2.25318050       6.37288760      12.39188965
W        4.50636100       7.96610950      12.39188965
W        4.50636100       6.37288760      14.64501694
W        2.25318050       7.96610950      14.64501694
W        2.25318050       6.37288760      16.89815510
W       -0.00000000       7.96610950      16.89815510
W       -0.00000000       6.37288760      23.04871220
W        2.25318050       7.96610950      23.04871220
W        2.25318050       6.37288760      25.30185035
W       -0.00000000       7.96610950      25.30185035
W       -0.00000000       6.37288760      27.55497765
W        2.25318050       7.96610950      27.55497765
W        2.25318050       6.37288760      29.80811504
W       -0.00000000       7.96610950      29.80811504
W        4.50636100       6.37288760      32.06120965
W        2.25318050       7.96610950      32.06120965
W        2.25318050       6.37288760      34.31425267
W       -0.00000000       7.96610950      34.31425267
W       -0.00000000       6.37288760      36.56724896
W        2.25318050       7.96610950      36.56724896
W        2.25318050       6.37288760      38.82031140
W       -0.00000000       7.96610950      38.82031140
W        4.50636100      -0.00000000       1.12655590
W        6.75954150       1.59322190       1.12655590
W        6.75954150       0.00000000       3.37961833
W        9.01272200       1.59322190       3.37961833
W        4.50636100       0.00000000       5.63261462
W        6.75954150       1.59322190       5.63261462
W        6.75954150      -0.00000000       7.88565765
W        9.01272200       1.59322190       7.88565765
W        4.50636100      -0.00000000      10.13875225
W        6.75954150       1.59322190      10.13875225
W        6.75954150       0.00000000      12.39188965
W        9.01272200       1.59322190      12.39188965
W        9.01272200      -0.00000000      14.64501694
W        6.75954150       1.59322190      14.64501694
W        6.75954150       0.00000000      16.89815510
W        4.50636100       1.59322190      16.89815510
W        4.50636100      -0.00000000      23.04871220
W        6.75954150       1.59322190      23.04871220
W        6.75954150      -0.00000000      25.30185035
W        4.50636100       1.59322190      25.30185035
W        4.50636100       0.00000000      27.55497765
W        6.75954150       1.59322190      27.55497765
W        6.75954150       0.00000000      29.80811504
W        4.50636100       1.59322190      29.80811504
W        9.01272200      -0.00000000      32.06120965
W        6.75954150       1.59322190      32.06120965
W        6.75954150      -0.00000000      34.31425267
W        4.50636100       1.59322190      34.31425267
W        4.50636100       0.00000000      36.56724896
W        6.75954150       1.59322190      36.56724896
W        6.75954150      -0.00000000      38.82031140
W        4.50636100       1.59322190      38.82031140
W        4.50636100       3.18644380       1.12655590
W        6.75954150       4.77966570       1.12655590
W        6.75954150       3.18644380       3.37961833
W        9.01272200       4.77966570       3.37961833
W        4.50636100       3.18644380       5.63261462
W        6.75954150       4.77966570       5.63261462
W        6.75954150       3.18644380       7.88565765
W        9.01272200       4.77966570       7.88565765
W        4.50636100       3.18644380      10.13875225
W        6.75954150       4.77966570      10.13875225
W        6.75954150       3.18644380      12.39188965
W        9.01272200       4.77966570      12.39188965
W        9.01272200       3.18644380      14.64501694
W        6.75954150       4.77966570      14.64501694
W        6.75954150       3.18644380      16.89815510
W        4.50636100       4.77966570      16.89815510
W        4.50636100       3.18644380      23.04871220
W        6.75954150       4.77966570      23.04871220
W        6.75954150       3.18644380      25.30185035
W        4.50636100       4.77966570      25.30185035
W        4.50636100       3.18644380      27.55497765
W        6.75954150       4.77966570      27.55497765
W        6.75954150       3.18644380      29.80811504
W        4.50636100       4.77966570      29.80811504
W        9.01272200       3.18644380      32.06120965
W        6.75954150       4.77966570      32.06120965
W        6.75954150       3.18644380      34.31425267
W        4.50636100       4.77966570      34.31425267
W        4.50636100       3.18644380      36.56724896
W        6.75954150       4.77966570      36.56724896
W        6.75954150       3.18644380      38.82031140
W        4.50636100       4.77966570      38.82031140
W        4.50636100       6.37288760       1.12655590
W        6.75954150       7.96610950       1.12655590
W        6.75954150       6.37288760       3.37961833
W        9.01272200       7.96610950       3.37961833
W        4.50636100       6.37288760       5.63261462
W        6.75954150       7.96610950       5.63261462
W        6.75954150       6.37288760       7.88565765
W        9.01272200       7.96610950       7.88565765
W        4.50636100       6.37288760      10.13875225
W        6.75954150       7.96610950      10.13875225
W        6.75954150       6.37288760      12.39188965
W        9.01272200       7.96610950      12.39188965
W        9.01272200       6.37288760      14.64501694
W        6.75954150       7.96610950      14.64501694
W        6.75954150       6.37288760      16.89815510
W        4.50636100       7.96610950      16.89815510
W        4.50636100       6.37288760      23.04871220
W        6.75954150       7.96610950      23.04871220
W        6.75954150       6.37288760      25.30185035
W        4.50636100       7.96610950      25.30185035
W        4.50636100       6.37288760      27.55497765
W        6.75954150       7.96610950      27.55497765
W        6.75954150       6.37288760      29.80811504
W        4.50636100       7.96610950      29.80811504
W        9.01272200       6.37288760      32.06120965
W        6.75954150       7.96610950      32.06120965
W        6.75954150       6.37288760      34.31425267
W        4.50636100       7.96610950      34.31425267
W        4.50636100       6.37288760      36.56724896
W        6.75954150       7.96610950      36.56724896
W        6.75954150       6.37288760      38.82031140
W        4.50636100       7.96610950      38.82031140
W        9.01272200      -0.00000000       1.12655590
W       11.26590250       1.59322190       1.12655590
W       11.26590250       0.00000000       3.37961833
W       13.51908301       1.59322190       3.37961833
W        9.01272200      -0.00000000       5.63261462
W       11.26590250       1.59322190       5.63261462
W       11.26590250      -0.00000000       7.88565765
W       13.51908301       1.59322190       7.88565765
W        9.01272200      -0.00000000      10.13875225
W       11.26590250       1.59322190      10.13875225
W       11.26590250       0.00000000      12.39188965
W       13.51908301       1.59322190      12.39188965
W       13.51908301      -0.00000000      14.64501694
W       11.26590250       1.59322190      14.64501694
W       11.26590250      -0.00000000      16.89815510
W        9.01272200       1.59322190      16.89815510
W        9.01272200      -0.00000000      23.04871220
W       11.26590250       1.59322190      23.04871220
W       11.26590250       0.00000000      25.30185035
W        9.01272200       1.59322190      25.30185035
W        9.01272200       0.00000000      27.55497765
W       11.26590250       1.59322190      27.55497765
W       11.26590250       0.00000000      29.80811504
W        9.01272200       1.59322190      29.80811504
W       13.51908301       0.00000000      32.06120965
W       11.26590250       1.59322190      32.06120965
W       11.26590250      -0.00000000      34.31425267
W        9.01272200       1.59322190      34.31425267
W        9.01272200      -0.00000000      36.56724896
W       11.26590250       1.59322190      36.56724896
W       11.26590250      -0.00000000      38.82031140
W        9.01272200       1.59322190      38.82031140
W        9.01272200       3.18644380       1.12655590
W       11.26590250       4.77966570       1.12655590
W       11.26590250       3.18644380       3.37961833
W       13.51908301       4.77966570       3.37961833
W        9.01272200       3.18644380       5.63261462
W       11.26590250       4.77966570       5.63261462
W       11.26590250       3.18644380       7.88565765
W       13.51908301       4.77966570       7.88565765
W        9.01272200       3.18644380      10.13875225
W       11.26590250       4.77966570      10.13875225
W       11.26590250       3.18644380      12.39188965
W       13.51908301       4.77966570      12.39188965
W       13.51908301       3.18644380      14.64501694
W       11.26590250       4.77966570      14.64501694
W       11.26590250       3.18644380      16.89815510
W        9.01272200       4.77966570      16.89815510
W        9.01272200       3.18644380      23.04871220
W       11.26590250       4.77966570      23.04871220
W       11.26590250       3.18644380      25.30185035
W        9.01272200       4.77966570      25.30185035
W        9.01272200       3.18644380      27.55497765
W       11.26590250       4.77966570      27.55497765
W       11.26590250       3.18644380      29.80811504
W        9.01272200       4.77966570      29.80811504
W       13.51908301       3.18644380      32.06120965
W       11.26590250       4.77966570      32.06120965
W       11.26590250       3.18644380      34.31425267
W        9.01272200       4.77966570      34.31425267
W        9.01272200       3.18644380      36.56724896
W       11.26590250       4.77966570      36.56724896
W       11.26590250       3.18644380      38.82031140
W        9.01272200       4.77966570      38.82031140
W        9.01272200       6.37288760       1.12655590
W       11.26590250       7.96610950       1.12655590
W       11.26590250       6.37288760       3.37961833
W       13.51908301       7.96610950       3.37961833
W        9.01272200       6.37288760       5.63261462
W       11.26590250       7.96610950       5.63261462
W       11.26590250       6.37288760       7.88565765
W       13.51908301       7.96610950       7.88565765
W        9.01272200       6.37288760      10.13875225
W       11.26590250       7.96610950      10.13875225
W       11.26590250       6.37288760      12.39188965
W       13.51908301       7.96610950      12.39188965
W       13.51908301       6.37288760      14.64501694
W       11.26590250       7.96610950      14.64501694
W       11.26590250       6.37288760      16.89815510
W        9.01272200       7.96610950      16.89815510
W        9.01272200       6.37288760      23.04871220
W       11.26590250       7.96610950      23.04871220
W       11.26590250       6.37288760      25.30185035
W        9.01272200       7.96610950      25.30185035
W        9.01272200       6.37288760      27.55497765
W       11.26590250       7.96610950      27.55497765
W       11.26590250       6.37288760      29.80811504
W        9.01272200       7.96610950      29.80811504
W       13.51908301       6.37288760      32.06120965
W       11.26590250       7.96610950      32.06120965
W       11.26590250       6.37288760      34.31425267
W        9.01272200       7.96610950      34.31425267
W        9.01272200       6.37288760      36.56724896
W       11.26590250       7.96610950      36.56724896
W       11.26590250       6.37288760      38.82031140
W        9.01272200       7.96610950      38.82031140
288
Lattice="13.519083005276505 3.9762680028551066e-17 -4.0430281816947754e-17 2.832107032207403e-17 9.559331404516637 -2.7421228983415876e-17 -9.765279892702126e-17 -9.449974793418939e-17 40.049431398529755" Properties=species:S:1:pos:R:3 vacuum_gap_Ang=4.0 frame_index=39 pbc="T T T"
W       -0.00000000       0.00000000       1.12655590
W        2.25318050       1.59322190       1.12655590
W        2.25318050       0.00000000       3.37961833
W        4.50636100       1.59322190       3.37961833
W       -0.00000000       0.00000000       5.63261462
W        2.25318050       1.59322190       5.63261462
W        2.25318050      -0.00000000       7.88565765
W        4.50636100       1.59322190       7.88565765
W       -0.00000000       0.00000000      10.13875225
W        2.25318050       1.59322190      10.13875225
W        2.25318050      -0.00000000      12.39188965
W        4.50636100       1.59322190      12.39188965
W        4.50636100      -0.00000000      14.64501694
W        2.25318050       1.59322190      14.64501694
W        2.25318050       0.00000000      16.89815510
W       -0.00000000       1.59322190      16.89815510
W       -0.00000000       0.00000000      23.15127630
W        2.25318050       1.59322190      23.15127630
W        2.25318050      -0.00000000      25.40441446
W       -0.00000000       1.59322190      25.40441446
W       -0.00000000      -0.00000000      27.65754175
W        2.25318050       1.59322190      27.65754175
W        2.25318050       0.00000000      29.91067915
W       -0.00000000       1.59322190      29.91067915
W        4.50636100      -0.00000000      32.16377375
W        2.25318050       1.59322190      32.16377375
W        2.25318050      -0.00000000      34.41681678
W       -0.00000000       1.59322190      34.41681678
W       -0.00000000      -0.00000000      36.66981307
W        2.25318050       1.59322190      36.66981307
W        2.25318050       0.00000000      38.92287550
W       -0.00000000       1.59322190      38.92287550
W       -0.00000000       3.18644380       1.12655590
W        2.25318050       4.77966570       1.12655590
W        2.25318050       3.18644380       3.37961833
W        4.50636100       4.77966570       3.37961833
W       -0.00000000       3.18644380       5.63261462
W        2.25318050       4.77966570       5.63261462
W        2.25318050       3.18644380       7.88565765
W        4.50636100       4.77966570       7.88565765
W       -0.00000000       3.18644380      10.13875225
W        2.25318050       4.77966570      10.13875225
W        2.25318050       3.18644380      12.39188965
W        4.50636100       4.77966570      12.39188965
W        4.50636100       3.18644380      14.64501694
W        2.25318050       4.77966570      14.64501694
W        2.25318050       3.18644380      16.89815510
W       -0.00000000       4.77966570      16.89815510
W       -0.00000000       3.18644380      23.15127630
W        2.25318050       4.77966570      23.15127630
W        2.25318050       3.18644380      25.40441446
W       -0.00000000       4.77966570      25.40441446
W       -0.00000000       3.18644380      27.65754175
W        2.25318050       4.77966570      27.65754175
W        2.25318050       3.18644380      29.91067915
W       -0.00000000       4.77966570      29.91067915
W        4.50636100       3.18644380      32.16377375
W        2.25318050       4.77966570      32.16377375
W        2.25318050       3.18644380      34.41681678
W       -0.00000000       4.77966570      34.41681678
W       -0.00000000       3.18644380      36.66981307
W        2.25318050       4.77966570      36.66981307
W        2.25318050       3.18644380      38.92287550
W       -0.00000000       4.77966570      38.92287550
W       -0.00000000       6.37288760       1.12655590
W        2.25318050       7.96610950       1.12655590
W        2.25318050       6.37288760       3.37961833
W        4.50636100       7.96610950       3.37961833
W       -0.00000000       6.37288760       5.63261462
W        2.25318050       7.96610950       5.63261462
W        2.25318050       6.37288760       7.88565765
W        4.50636100       7.96610950       7.88565765
W        0.00000000       6.37288760      10.13875225
W        2.25318050       7.96610950      10.13875225
W        2.25318050       6.37288760      12.39188965
W        4.50636100       7.96610950      12.39188965
W        4.50636100       6.37288760      14.64501694
W        2.25318050       7.96610950      14.64501694
W        2.25318050       6.37288760      16.89815510
W       -0.00000000       7.96610950      16.89815510
W       -0.00000000       6.37288760      23.15127630
W        2.25318050       7.96610950      23.15127630
W        2.25318050       6.37288760      25.40441446
W       -0.00000000       7.96610950      25.40441446
W       -0.00000000       6.37288760      27.65754175
W        2.25318050       7.96610950      27.65754175
W        2.25318050       6.37288760      29.91067915
W       -0.00000000       7.96610950      29.91067915
W        4.50636100       6.37288760      32.16377375
W        2.25318050       7.96610950      32.16377375
W        2.25318050       6.37288760      34.41681678
W       -0.00000000       7.96610950      34.41681678
W       -0.00000000       6.37288760      36.66981307
W        2.25318050       7.96610950      36.66981307
W        2.25318050       6.37288760      38.92287550
W       -0.00000000       7.96610950      38.92287550
W        4.50636100      -0.00000000       1.12655590
W        6.75954150       1.59322190       1.12655590
W        6.75954150       0.00000000       3.37961833
W        9.01272200       1.59322190       3.37961833
W        4.50636100       0.00000000       5.63261462
W        6.75954150       1.59322190       5.63261462
W        6.75954150      -0.00000000       7.88565765
W        9.01272200       1.59322190       7.88565765
W        4.50636100      -0.00000000      10.13875225
W        6.75954150       1.59322190      10.13875225
W        6.75954150       0.00000000      12.39188965
W        9.01272200       1.59322190      12.39188965
W        9.01272200      -0.00000000      14.64501694
W        6.75954150       1.59322190      14.64501694
W        6.75954150       0.00000000      16.89815510
W        4.50636100       1.59322190      16.89815510
W        4.50636100      -0.00000000      23.15127630
W        6.75954150       1.59322190      23.15127630
W        6.75954150      -0.00000000      25.40441446
W        4.50636100       1.59322190      25.40441446
W        4.50636100       0.00000000      27.65754175
W        6.75954150       1.59322190      27.65754175
W        6.75954150       0.00000000      29.91067915
W        4.50636100       1.59322190      29.91067915
W        9.01272200      -0.00000000      32.16377375
W        6.75954150       1.59322190      32.16377375
W        6.75954150      -0.00000000      34.41681678
W        4.50636100       1.59322190      34.41681678
W        4.50636100       0.00000000      36.66981307
W        6.75954150       1.59322190      36.66981307
W        6.75954150      -0.00000000      38.92287550
W        4.50636100       1.59322190      38.92287550
W        4.50636100       3.18644380       1.12655590
W        6.75954150       4.77966570       1.12655590
W        6.75954150       3.18644380       3.37961833
W        9.01272200       4.77966570       3.37961833
W        4.50636100       3.18644380       5.63261462
W        6.75954150       4.77966570       5.63261462
W        6.75954150       3.18644380       7.88565765
W        9.01272200       4.77966570       7.88565765
W        4.50636100       3.18644380      10.13875225
W        6.75954150       4.77966570      10.13875225
W        6.75954150       3.18644380      12.39188965
W        9.01272200       4.77966570      12.39188965
W        9.01272200       3.18644380      14.64501694
W        6.75954150       4.77966570      14.64501694
W        6.75954150       3.18644380      16.89815510
W        4.50636100       4.77966570      16.89815510
W        4.50636100       3.18644380      23.15127630
W        6.75954150       4.77966570      23.15127630
W        6.75954150       3.18644380      25.40441446
W        4.50636100       4.77966570      25.40441446
W        4.50636100       3.18644380      27.65754175
W        6.75954150       4.77966570      27.65754175
W        6.75954150       3.18644380      29.91067915
W        4.50636100       4.77966570      29.91067915
W        9.01272200       3.18644380      32.16377375
W        6.75954150       4.77966570      32.16377375
W        6.75954150       3.18644380      34.41681678
W        4.50636100       4.77966570      34.41681678
W        4.50636100       3.18644380      36.66981307
W        6.75954150       4.77966570      36.66981307
W        6.75954150       3.18644380      38.92287550
W        4.50636100       4.77966570      38.92287550
W        4.50636100       6.37288760       1.12655590
W        6.75954150       7.96610950       1.12655590
W        6.75954150       6.37288760       3.37961833
W        9.01272200       7.96610950       3.37961833
W        4.50636100       6.37288760       5.63261462
W        6.75954150       7.96610950       5.63261462
W        6.75954150       6.37288760       7.88565765
W        9.01272200       7.96610950       7.88565765
W        4.50636100       6.37288760      10.13875225
W        6.75954150       7.96610950      10.13875225
W        6.75954150       6.37288760      12.39188965
W        9.01272200       7.96610950      12.39188965
W        9.01272200       6.37288760      14.64501694
W        6.75954150       7.96610950      14.64501694
W        6.75954150       6.37288760      16.89815510
W        4.50636100       7.96610950      16.89815510
W        4.50636100       6.37288760      23.15127630
W        6.75954150       7.96610950      23.15127630
W        6.75954150       6.37288760      25.40441446
W        4.50636100       7.96610950      25.40441446
W        4.50636100       6.37288760      27.65754175
W        6.75954150       7.96610950      27.65754175
W        6.75954150       6.37288760      29.91067915
W        4.50636100       7.96610950      29.91067915
W        9.01272200       6.37288760      32.16377375
W        6.75954150       7.96610950      32.16377375
W        6.75954150       6.37288760      34.41681678
W        4.50636100       7.96610950      34.41681678
W        4.50636100       6.37288760      36.66981307
W        6.75954150       7.96610950      36.66981307
W        6.75954150       6.37288760      38.92287550
W        4.50636100       7.96610950      38.92287550
W        9.01272200      -0.00000000       1.12655590
W       11.26590250       1.59322190       1.12655590
W       11.26590250       0.00000000       3.37961833
W       13.51908301       1.59322190       3.37961833
W        9.01272200      -0.00000000       5.63261462
W       11.26590250       1.59322190       5.63261462
W       11.26590250      -0.00000000       7.88565765
W       13.51908301       1.59322190       7.88565765
W        9.01272200      -0.00000000      10.13875225
W       11.26590250       1.59322190      10.13875225
W       11.26590250       0.00000000      12.39188965
W       13.51908301       1.59322190      12.39188965
W       13.51908301      -0.00000000      14.64501694
W       11.26590250       1.59322190      14.64501694
W       11.26590250      -0.00000000      16.89815510
W        9.01272200       1.59322190      16.89815510
W        9.01272200      -0.00000000      23.15127630
W       11.26590250       1.59322190      23.15127630
W       11.26590250       0.00000000      25.40441446
W        9.01272200       1.59322190      25.40441446
W        9.01272200       0.00000000      27.65754175
W       11.26590250       1.59322190      27.65754175
W       11.26590250       0.00000000      29.91067915
W        9.01272200       1.59322190      29.91067915
W       13.51908301       0.00000000      32.16377375
W       11.26590250       1.59322190      32.16377375
W       11.26590250      -0.00000000      34.41681678
W        9.01272200       1.59322190      34.41681678
W        9.01272200      -0.00000000      36.66981307
W       11.26590250       1.59322190      36.66981307
W       11.26590250      -0.00000000      38.92287550
W        9.01272200       1.59322190      38.92287550
W        9.01272200       3.18644380       1.12655590
W       11.26590250       4.77966570       1.12655590
W       11.26590250       3.18644380       3.37961833
W       13.51908301       4.77966570       3.37961833
W        9.01272200       3.18644380       5.63261462
W       11.26590250       4.77966570       5.63261462
W       11.26590250       3.18644380       7.88565765
W       13.51908301       4.77966570       7.88565765
W        9.01272200       3.18644380      10.13875225
W       11.26590250       4.77966570      10.13875225
W       11.26590250       3.18644380      12.39188965
W       13.51908301       4.77966570      12.39188965
W       13.51908301       3.18644380      14.64501694
W       11.26590250       4.77966570      14.64501694
W       11.26590250       3.18644380      16.89815510
W        9.01272200       4.77966570      16.89815510
W        9.01272200       3.18644380      23.15127630
W       11.26590250       4.77966570      23.15127630
W       11.26590250       3.18644380      25.40441446
W        9.01272200       4.77966570      25.40441446
W        9.01272200       3.18644380      27.65754175
W       11.26590250       4.77966570      27.65754175
W       11.26590250       3.18644380      29.91067915
W        9.01272200       4.77966570      29.91067915
W       13.51908301       3.18644380      32.16377375
W       11.26590250       4.77966570      32.16377375
W       11.26590250       3.18644380      34.41681678
W        9.01272200       4.77966570      34.41681678
W        9.01272200       3.18644380      36.66981307
W       11.26590250       4.77966570      36.66981307
W       11.26590250       3.18644380      38.92287550
W        9.01272200       4.77966570      38.92287550
W        9.01272200       6.37288760       1.12655590
W       11.26590250       7.96610950       1.12655590
W       11.26590250       6.37288760       3.37961833
W       13.51908301       7.96610950       3.37961833
W        9.01272200       6.37288760       5.63261462
W       11.26590250       7.96610950       5.63261462
W       11.26590250       6.37288760       7.88565765
W       13.51908301       7.96610950       7.88565765
W        9.01272200       6.37288760      10.13875225
W       11.26590250       7.96610950      10.13875225
W       11.26590250       6.37288760      12.39188965
W       13.51908301       7.96610950      12.39188965
W       13.51908301       6.37288760      14.64501694
W       11.26590250       7.96610950      14.64501694
W       11.26590250       6.37288760      16.89815510
W        9.01272200       7.96610950      16.89815510
W        9.01272200       6.37288760      23.15127630
W       11.26590250       7.96610950      23.15127630
W       11.26590250       6.37288760      25.40441446
W        9.01272200       7.96610950      25.40441446
W        9.01272200       6.37288760      27.65754175
W       11.26590250       7.96610950      27.65754175
W       11.26590250       6.37288760      29.91067915
W        9.01272200       7.96610950      29.91067915
W       13.51908301       6.37288760      32.16377375
W       11.26590250       7.96610950      32.16377375
W       11.26590250       6.37288760      34.41681678
W        9.01272200       7.96610950      34.41681678
W        9.01272200       6.37288760      36.66981307
W       11.26590250       7.96610950      36.66981307
W       11.26590250       6.37288760      38.92287550
W        9.01272200       7.96610950      38.92287550
