Nb
 1.0000000000000000
    56.9852626216473368    0.0000010415064528   -0.0423858400735107
    28.4936971567969195   25.8525190928012343   -1.4423971723246785
    -0.0021306941731196    0.0000000219721493    2.8424096005155990
 Nb 
 231
Cartesian
 28.4336170022674501 16.1946413062488297 -1.1402117735449908
 33.9817428003718760 20.8153617435114242 -0.7042904126490483
 32.6032556308948926 18.4948283345785143  1.2508693389700374
 31.2153830324234960 16.1902606412389467  0.4236830265306984
 39.4866948440484933 25.4609892190614424  0.0532643385790028
 38.1136929736346133 23.1414243471016725 -0.8620887337332847
 36.7421590868380505 20.8236385873038401 -1.7885685162981217
 35.3704042769938667 18.5067422402037209  0.1163108837006093
 33.9953021757870246 16.1882538558487710 -0.8430921260738747
 16.4397108085199868  4.3095039821508827  2.3448100093361606
 15.0929452610873085  1.9503418890135291  1.4221679489464485
 42.2267260393040615 25.4609893036717629 -0.9483712256024510
 40.8598827034626808 23.1339297871517857 -1.8825915030954248
 39.4879031556535764 20.8158488797535846  0.0149504195024772
 38.1152641666699097 18.5013027852691465 -0.9476843172367940
 36.7335665267181568 16.1836595466223336 -1.9460121544367326
 21.7866259727350986  9.0992611688392309  0.3961426414520601
 20.4684505666694321  6.7188238247842920  2.3434209790842075
 19.1408642503219077  4.3390849101710591  1.4209898049377447
 17.8022115646976076  1.9668584214232523  0.4817074683871713
 44.9469911003836273 25.4609893814201733 -1.9089239825796789
 43.5866423233151679 23.1191177226555524 -0.0202293208887426
 42.2197569977316505 20.7914182871664224 -0.9814339072700998
 40.8428669591504772 18.4722324696348785 -1.9566984215090300
 39.4497367110164419 16.1543604562493570 -0.1157989211868143
 27.0852157495382535 13.8581690227686067  1.0814177079833807
 25.7915246203859994 11.4920033971130362  0.3496145165755877
 24.4841376563147648  9.1196409199610962  2.3563037181407340
 23.1608416911140083  6.7417081745589664  1.4609273332180746
 21.8295959434270763  4.3602938015452679  0.5305304828707705
 20.4937825498766237  1.9804033049943632 -0.4217637611591299
 47.6444896181781559 25.4609894772191190  0.0126000119530078
 46.2959086211675697 23.1026013412325391 -0.9606897920672697
 44.9355384820750885 20.7599557054620156 -1.9399969482412134
 43.5570908857806387 18.4305003296676659 -0.0860045377798735
 42.1612756194521197 16.1080879167215905 -1.0905272755694346
 29.8165600608409171 13.8528158406452881 -0.0371595179846324
 28.4828208211164942 11.4680458930978073  2.3621640577789340
 27.1749863761492279  9.1073426841454630  1.5255491732588580
 25.8454538118502022  6.7416748034285918  0.6159795914465028
 24.5092005460073850  4.3673502492969440 -0.3271422097177510
 23.1702352388641728  1.9876720433667616  1.5506251144337482
 50.3273787310678031 25.4609895430077877 -0.8722977760633801
 48.9874795965732375 23.0890565869400177 -1.8641610000158706
 47.6345612200643274 20.7303749278377900 -0.0214075207782310
 46.2646476634112958 18.3872781099340941 -1.0279022206394943
 44.8708667886721031 16.0570007821654244 -2.0431423633956438
 32.6046678055280168 13.8491063982425562  0.9090499842900809
 31.2026934449536242 11.4382557914266556  1.8766829619964682
 29.8588492731465287  9.0664930027633392  0.7854599376956348
 28.5232245190177949  6.7114991830880033 -0.1873085795009836
 27.1818884958583276  4.3538102627764825  1.6868295673628251
 25.8429294503246005  1.9853415240879502  0.7078833130549813
 53.0006129477462693 25.4609895770855204 -1.7270663755611257
 51.6639322837056909 23.0817880008628933  0.1082279035405220
 50.3232928817366272 20.7091661617680849 -0.9118667930131144
 48.9642781329675856 18.3506360653465244 -1.9413859901563155
 47.5760411656033071 16.0088558478015059 -0.1341028573654022
 35.3321522880849841 13.8490843718280878 -0.1925235376268924
 33.9237995644761554 11.4660091768482015  1.3987893343869902
 32.5435941872330474  9.0658746721249646  0.1461219005186939
 31.1976796650559081  6.6904916986001854  1.8943054809283892
 29.8575918599724268  4.3322048638720663  0.8787606694350900
 28.5172614226860262  1.9748114069992937 -0.1182848278525909
 55.6708255204819977 25.4609896136718099  0.2807199491220609
 54.3366264806016304 23.0841186017931754 -0.7345138792522717
 53.0028974563345301 20.7021098170663151 -1.7695394387491139
 51.6545385630613438 18.3277518360653779  0.0185300408739027
 50.2803227992695767 15.9701987262765694 -1.0462547702132610
 38.0393759897913739 13.8281863155342961 -1.1649430783926464
 36.6167677321203371 11.4795306701510782  0.5625382481053398
 35.2247074237059508  9.1007288769055332  2.2469989918782587
 33.8736573202620477  6.7081301992845868  1.1323147481890277
 32.5351905857192065  4.3308656771498244  0.0782859587843907
 31.1938633929952154  1.9681369171271501  1.9035269216429285
 58.3479766673664386 25.4609896260302833 -0.5458589762027408
 57.0109584481432421 23.0946487306152122 -1.5606820187247927
 55.6755854218898349 20.7156498794732684  0.2444323617113467
 54.3391506450910313 18.3277852515996500 -0.8264176288801247
 52.9799651129235230 15.9498191218023706 -1.9285031942312916
 40.7457781585959680 13.7853077585282229 -2.1205002385159575
 39.3181574674594287 11.4539358665171100  2.5017631800204936
 37.9164910006173912  9.1045301150860212  1.4124243626897985
 36.5518930045721362  6.7325787468675591  0.3252862780895613
 35.2091875832376573  4.3492007514485307  2.1095110378727742
 33.8730129687568748  1.9732182357775416  1.0811381840493199
 61.0284095361352712 25.4609896319904827 -1.3722751765400645
 59.6875604289246908 23.1013232456301765  0.4611297138858231
 58.3512887982242532 20.7372552763983542 -0.5636365581078258
 57.0169213348060779 18.3579609756493554 -1.6297057958696750
 55.6686830752913835 15.9621175873666150  0.0831519171176924
 43.4536174613238515 13.7334099585545211 -0.2276869884321451
 42.0278249388821976 11.4095337100123295  1.5746232265296021
 40.6184362454429362  9.0768591823150881  0.5243233243349766
 39.2365684858451118  6.7263838680515127  2.3154129197304600
 37.8856881939510544  4.3586478163219748  1.2739643685953828
 36.5487414417457117  1.9818470759517790  0.2491320202854397
 63.7044507777116138 25.4609896742601229  0.6396393454094378
 62.3667100145647382 23.0962419765061568 -0.3612590483274744
 61.0288874964894177 20.7385944804435596 -1.3641113126609590
 59.6913764794421340 18.3789685513155234  0.4519081847914682
 58.3525460171533297 16.0029671368377926 -0.6569373597933978
 46.1647430841029589 13.6803730613983436 -1.1712260069798219
 44.7398981605830386 11.3577167207944267  0.6356250979096087
 43.3236523820209669  9.0331786941366339  2.4468342858103242
 41.9328734657389290  6.6982770273576842  1.4219629670611129
 40.5689248900826911  4.3475711103321952  0.4045397724705677
 39.2222644889587997  1.9821118188671101  2.2380682094778028
 66.3790700951141446 25.4609897227432427 -0.2035522875364004
 65.0424384802476681 23.0876132251647093 -1.1932652329221365
 63.7028845100135896 20.7202595077457339  0.6671137181287518
 62.3673541658775648 18.3613300215662072 -0.3100826443243186
 61.0372909100273020 16.0035854570003373 -1.2962755712757632
 48.8756513479810835 13.6318112281247625 -2.1077439825535285
 47.4500949641061567 11.3054574695377195  2.5308992277412687
 46.0344700997089689  8.9834485946571938  1.5041113184902470
 44.6376694727308703  6.6585260139430087  0.4947260975625324
 43.2611664097857158  4.3232484141445520  2.3404755002144779
 41.9059177714389932  1.9729749540040387  1.3521386415439789
 69.0563595981193146 25.4609897847944922 -1.0722136519300722
 67.7159615334465030 23.0873486197827589  0.7956709375197719
 66.3793851381416005 20.7108125602834718 -0.1684329897671683
 65.0455897972703383 18.3368815232040916 -1.1171111714386572
 63.7184041708929598 15.9687314923960866  0.8046014511119648
 51.5822991031126676 13.5940871081306778 -0.1909906394903909
 50.1612622557450365 11.2582541781805574  1.5769125531773054
 48.7476555454936005  8.9346292530400824  0.5412732952184658
 47.3488484511450096  6.6152673446134287  2.3799573758442771
 45.9693477484929502  4.2923040050525261  1.3978399819651979
 44.6046287380585795  1.9581507362352180  0.4285278402553945
 71.7434268724132238 25.4609898628054907  0.8663064212626667
 70.3996148204647341 23.0964855930986914 -0.0902586435043697
 69.0626218295022056 20.7218893778980409 -1.0378576117856766
 67.7302653098033716 18.3430765839397623  0.8730154355841765
 66.4101877202014634 15.9649302912686650 -0.0299732253752376
 54.2852212645721295 13.5774566562110692 -1.0927828978102407
 52.8692121592233661 11.2230975486286226  0.6166479393659521
 51.4606058827284443  8.8941600375280281  2.3985610005369526
 50.0708840482014139  6.5769584994553050  1.3928822851966809
 48.6926426349354031  4.2620230866190481  0.4197444671259102
 47.3201917244974410  1.9415411341221644  2.3083295643507848
 74.4513196794568302 25.4609899201966279 -0.0769986537600839
 73.0983257877255994 23.1113099281031182 -1.0138694474391277
 71.7548633498993951 20.7462122159719478  0.8980781009338252
 70.4265703004209769 18.3711835445972227 -0.0204345349809901
 69.1121329620146554 15.9926013110028986 -0.9180742849650291
 56.9786484336966907 13.6014141358091063 -1.9226427143280089
 55.5767817747333339 11.2112910616755084  2.4814295276568306
 54.1826962246668060  8.8727085260356002  1.3757689358230789
 52.8036140441319191  6.5538875295906678  0.3695409928228640
 51.4291830349234260  4.2411839787243677  2.2476847349025371
 50.0573061861814850  1.9280397970641510  1.3069583044747390
 77.1804057314948153 25.4609899796057881 -1.0605074340906295
 75.8138887731334563 23.1279196885886194  0.8659322828905812
 74.4630446928203753 20.7771567358012632 -0.0445574167739784
 73.1313663136595551 18.4109346587533338 -0.9476714138078339
 71.8173491174972725 16.0362819504105403  1.0044366652589813
 59.6963899829591824 13.6312043953448416  0.4342853632843208
 58.3081259194166677 11.2166444429805559  1.3628515229157099
 56.9251829117368828  8.8748187061451045  0.2597996471214390
 55.5506245696036416  6.5549975287398565  2.1352425135649562
 54.1822884887734730  4.2381077208517794  1.1937150810270269
 52.8101265151829793  1.9228162417086472  0.2683518006289305
 79.9261149892532643 25.4609900444872359  0.7596947203347871
 78.5510032356605308 23.1414211397566305 -0.1354389591239335
 77.1863395793066900 20.8074377657123506 -1.0226529104830835
 75.8425452994984113 18.4541934656808593  0.9375598736264582
 74.5281668408489963 16.0860121487233201  0.0617136959179085
 62.4174961206745422 13.6034509139294286 -0.0436083748604344
 61.0983646176194313 11.2203540321943702 -0.5333480383398722
 59.7069489719600597  8.8791990758929682  1.8236944220493025
 58.3202758139754991  6.5720494680656252  0.9915586768822532
 56.9458394248765245  4.2504908467949409  0.0986367429957582
 55.5689413765520825  1.9272561025029882  2.0389393007578547
 82.6849083374911373 25.4609900760494803 -0.2966822112323994
 81.3038235516059302 23.1466448053955460 -1.1740454313811926
 22.9376173371386685 20.8282759937662973  0.8476732413241367
 21.5793182713309761 18.4925013774746994 -0.0071293434292220
 20.2560896753611885 16.1348305402864369 -0.8587384787981750
 65.1104643520808963 13.5899296345593523 -0.8798594727362926
 63.8237181834174550 11.2203759093165409  1.2074881535402575
 62.4868680878777809  8.8812063034151301  0.5569193324245320
 61.0969520757358069  6.5746319617545579 -0.1915289004300000
 59.7089344303057601  4.2594630048959230  1.8162919858182673
 58.3304490627512351  1.9335438111012351  0.9435477763306360
 28.4606310912980902 25.4609890704651356 -1.3361288055296985
 27.0773757702672775 23.1422040009822396  0.6389279399715997
 25.6907227866126249 20.8313523171218691 -0.2062963505801252
 24.3120482737998884 18.5155724302198976 -1.0304705652243347
 22.9690400134306678 16.1752999127816075  0.9985492598007862
 67.8118541031935109 13.6155246388443274  1.0593654565811674
 66.5309418537317185 11.2412740384280969  0.2350686653633108
 65.2251323582721625  8.8858008055308382 -0.5460005619625975
 63.8619700466559905  6.5627179960381339  1.5163223358493561
  5.4880459421346135  4.2540973668432107  0.7381068091657184
  4.1060752600299573  1.9344931582060190 -0.1156736342785704
 31.2187645698876430 25.4609891172148401  0.4124613403543541
 29.8388834473466567 23.1359162611236542 -0.4564635657055092
 28.4542737737926998 20.8189691997745818 -1.3013746148307217
 27.0590587343841520 18.5144625270617134  0.7352310719952621
 25.6911303589992883 16.1967515724391902 -0.0242426929932916
 70.5215215696398161 13.6599268853180096  0.1322255009461185
 69.2373440033635745 11.2841527371854227 -0.7204884694548102
 10.9560398982556375  8.9150989699679766  1.3265985734245340
  9.6215673110831439  6.5681565041176775  0.4947130548700399
  8.2484621613855893  4.2458206281705690 -0.3461712437696449
  6.8633866702416819  1.9301334342956968  1.6387076731391876
 33.9779418266282249 25.4609891183665056 -0.6776420887002729
 32.5997723037488285 23.1349659003154073 -1.5580708149708327
 31.2173687267732411 20.8099971278467279  0.4162806454511051
 29.8287099014016661 18.4974107364019140 -0.4084526895471675
 16.2483321804169698 13.7117429302673610 -0.7643867935308614
 14.9599206978410439 11.3360496488209908  1.2147106235456062
 13.6675787746698418  8.9613716090134634  0.3518702468354378
 12.3491700631114085  6.5972269743153076 -0.5143009947776797
 10.9942061885933775  4.2536105139912825  1.4573477476115988
  9.6199959283519121  1.9280349510685357  0.5803085051834772
 36.7356903515114155 25.4609891336547776 -1.7489523428456928
 35.3570837221757586 23.1393257729261528  0.1963104697558999
 18.9585289937230570 13.7640023082128611  1.1308873237831187
 17.6710463189135787 11.3890866448990380  0.2711715895758012
 16.3771699495075111  9.0124588647538406 -0.6007448443790638
 15.0633939777279799  6.6389592843866518  1.3563929070659129
 13.7260600199659724  4.2780412363350147  0.4609634505211841
 12.3661856572321813  1.9355296296652689 -0.4401942418250253
 21.6696962780466791 13.8112056982015439  0.1769006345063609
 20.3819546014857274 11.4376485849126084 -0.6653464238019269
 19.0823443357435849  9.0606039454377569  1.3082946214530435
 17.7709507564051172  6.6821816358957431  0.4144952031256873
 24.3776462025898262 13.8463623963536619 -0.7833639692433298
 23.0886023485503920 11.4753728641994233  1.2514068603626514
