Nb
 1.0000000000000000
    56.9852626216473368    0.0000010415064528   -0.0423858400735107
    28.4936971567969195   25.8525190928012343   -1.4423971723246785
    -0.0021306941731196    0.0000000219721493    2.8424096005155990
 Nb 
 231
Cartesian
 28.4937503727058932 16.1909273482731706 -1.4425216206484570
 34.0186749595250717 20.8282697331775815 -0.8140529582150018
 32.6474413867633118 18.5115938057838640  1.0898099839196997
 31.2737485449875692 16.1924268769400896  0.1270305845750067
 39.5097582139233836 25.4609892536052058  0.0089503112211958
 38.1407036319082096 23.1380858586688234 -0.9199195228602274
 36.7694969445994886 20.8228799970234348 -1.8615223907384326
 35.3946654649388961 18.5096178389514243  0.0188907822568861
 34.0142919262555949 16.1916772086751592 -0.9819168400746219
 16.4317647763186692  4.3312931982744400  2.3560897404500740
 15.0921792200059670  1.9624328423000275  1.4209598316214267
 42.2349214870415537 25.4609893968002439 -0.9639234067312491
 40.8741817875266662 23.1238155099798703 -1.9116811128274909
 39.5029833507016264 20.8001124463752198 -0.0256585061607626
 38.1250703449289716 18.4834011645206253 -0.9982398736226638
 36.7346091514675521 16.1661940738521963 -1.9998768267471307
 21.7763696576539765  9.1137070414377952  0.4461016667522885
 20.4532592515840470  6.7352517577564459  2.3889183337295132
 19.1232535098587775  4.3546085899529974  1.4576283219387074
 17.7874056946922678  1.9769107081850354  0.5073799541689205
 44.9389387386202941 25.4609893632710431 -1.8962860228155631
 43.5858762729310598 23.1070268338564055 -0.0214374090003763
 42.2228051030743146 20.7689227826802991 -0.9949398503660902
 40.8444083487797442 18.4430358186217376 -1.9787260863424891
 39.4457994291811076 16.1224328355143953 -0.1383924502444520
 27.0968715961261957 13.8517691660285927  0.9282409061618946
 25.7714349114548291 11.4692541937418575  0.4558235358955491
 24.4654875445231710  9.1060317444288952  2.4563108670795377
 23.1388132814004841  6.7387731047188790  1.5409227884814563
 21.8044559474105455  4.3641082227707075  0.5947194412766350
 20.4683140401880053  1.9853914850165371 -0.3700135844337262
 47.6227915770396208 25.4609892475840027  0.0520951407630328
 46.2811028253322974 23.0925492714364182 -0.9350172877602946
 44.9275921243390570 20.7381667049044438 -1.9287171697097423
 43.5527286970858256 18.3992439326608839 -0.0868173023092315
 42.1570704317861171 16.0718981435744475 -1.0972828344952310
 29.8884961619502967 13.8517715937312982 -0.9708757781275035
 28.4905509194705360 11.4402022154620884  2.8210930815399031
 27.1490910205326301  9.0682383510917486  1.7175832904877801
 25.8166275736425916  6.7115583184427638  0.7374101688996607
 24.4797489587682620  4.3527732780270103 -0.2359051830947537
 23.1399195094053383  1.9842401548493314  1.6254698015374214
 50.2976791170081583 25.4609896683050252 -0.8086615757902773
 48.9620107052285078 23.0840685999234516 -1.8124108810401629
 47.6169508928364849 20.7148512201113917  0.0152309311970410
 46.2548687006909276 18.3603609417170510 -1.0078013214336183
 44.8659225686090224 16.0222629897778965 -2.0364039874493169
 32.6158203576060615 13.8553267613714475  0.7646969055066829
 31.2118080347535098 11.4692523763904770  2.3439513738975850
 29.8341473072000198  9.0682379114212974  1.0821916978223298
 28.4926836972198210  6.6922246392827764 -0.0213172066798918
 27.1530694217582855  4.3327694311821414  1.7989356142712973
 25.8143793028759134  1.9746655320593680  0.7981030759885787
 52.9705676476302045 25.4609899105336162 -1.6460806045268690
 51.6336166862886614 23.0852193576465616  0.1830725023096923
 50.2981530081601562 20.7053510009399169 -0.8476778228896108
 48.9490860995109855 18.3342080512292753 -1.8958886233827226
 47.5693918978851045 15.9803664856017029 -0.1108015235568429
 35.3241946243113176 13.8388992592385200 -0.2102277056900762
 33.9049000166846710 11.4876537015839890  1.5101075463936617
 32.5177498649548227  9.1060331905232079  0.3434641682814257
 31.1666111208654186  6.7115586739389475  2.0623648825921146
 29.8301683981693344  4.3327692415699826  1.0008393118532524
 28.4926841578147290  1.9687693492239196 -0.0213173978839525
 55.6454365978844052 25.4609894037695454  0.3696785105086775
 54.3080766703354385 23.0947940249465660 -0.6442942567801215
 52.9734462120143945 20.7166867456171033 -1.6783025901515451
 51.6325102074364111 18.3306888677032944  0.0985251032881347
 50.2700659060573116 15.9557527875385805 -0.9962958253848668
 38.0312682788736538 13.7994767151285718 -1.1688678300570190
 36.6080106469894204 11.4661045343992942  0.6071368588825585
 35.2068682665010897  9.1137073101644344  2.3536734580061265
 33.8444242186710866  6.7387726475826240  1.2588523311131226
 32.5056196757438940  4.3527733206585184  0.1932704876213526
 31.1688584239108089  1.9746657524342317  2.0016717320931154
 58.3251952824702400 25.4609894077671157 -0.4546981879984098
 56.9863813146872644 23.1006911081860906 -1.4637147106823871
 55.6467649434964500 20.7366914665738520  0.3565383587367303
 54.3103236992783494 18.3579012688027774 -0.7049874326999797
 52.9613177322306967 15.9634242661805921 -1.8284960129266219
 40.7416227650516305 13.7493209065159849 -2.1217910915545670
 39.3148626928504896 11.4244174389327480  2.5222721785594384
 37.9075429516847322  9.0890940564262621  1.4681790913168662
 36.5299791219662637  6.7352519991835473  0.4108566530766737
 35.1787816466627206  4.3641086112937124  2.2050554620449021
 33.8433180871039809  1.9842404425074693  1.1743049986121059
 61.0021949235510519 25.4609898759538247 -1.2813486721630911
 59.6625549759640492 23.0947942440212906  0.5592744491244720
 58.3238666581874483 20.7366913064093339 -0.4415582850054550
 56.9863817722920416 18.3772333657765081 -1.4637149089842958
 55.6427865849328924 16.0012233107974815  0.2751860486712476
 43.4508952068845673 13.6959620684492442 -0.2259746897759636
 42.0260395016392820 11.3734980812445414  1.5833523327705941
 40.6131428852462761  9.0471971656794548  0.5513720075002276
 39.2220664138360249  6.7090989134436807  2.3651789228450544
 37.8599842603235643  4.3546089195325379  1.3421465803807680
 36.5170544675764717  1.9853916818271244  0.3273787781508541
 63.6729527709799541 25.4609897842806276  0.7236418970691014
 62.3370152131120108 23.0852196278559774 -0.2680923157313372
 60.9993160203913831 20.7166868290152131 -1.2491269274649410
 59.6603069916587714 18.3579014934567510  0.6199673846980250
 58.3278446089356635 16.0012230056999769 -0.3602060702995813
 46.1620722629137035 13.6450427371748226 -1.1648945683357161
 44.7374428413873204 11.3201391334219217  0.6367591151796828
 43.3198644771825059  8.9975620221322909  2.4546604393421334
 41.9242059320350080  6.6702162741426125  1.4441949066509272
 40.5514730332814608  4.3312935297528954  0.4436851463261113
 39.1958319523617789  1.9769109919287171  2.2923948261180414
 66.3478402931086038 25.4609896387751036 -0.1371148200464654
 65.0107515739741189 23.0840687977655108 -1.1150185232170928
 63.6724788570680076 20.7053513899937442  0.7626579084691353
 62.3381217817091553 18.3306884320581140 -0.1835452357589961
 61.0114449007417576 15.9634256983036824 -1.0989336387524800
 48.8710548510816665 13.6033549722170584 -2.0921687994905258
 47.4456663625023154 11.2699832310709702  2.5262454739767395
 46.0311352777588780  8.9470274282425191  1.4957700726180154
 44.6346572199949065  6.6264243271407386  0.4936940849067448
 43.2541297940498239  4.3005373991745248  2.3523174194749981
 41.8910584454218053  1.9624332937159237  1.3788149429053782
 69.0338238475367660 25.4609898156574204 -1.0311432582533187
 67.6895290170281214 23.0925495664205336  0.8499974912503494
 66.3536807658451409 20.7148515316022461 -0.1002508502128104
 65.0236756587381137 18.3342083608627568 -1.0315409677877263
 63.7005656072768645 15.9557530060281501  0.9112756850141658
 51.5720357679656445 13.5818058947611338 -0.1527298390865757
 50.1527400769474880 11.2305619311361529  1.5676052934392430
 48.7444563189548958  8.9032658533063778  0.5148448306987552
 47.3518644297437135  6.5860590230379668  2.3556174372105967
 45.9739513096045371  4.2693475905566407  1.3830360790097314
 44.6048837867618744  1.9456446940399812  0.4266490304226200
 71.7357103985749802 25.4609899073802843  0.8789037297389952
 70.3847554899817851 23.1070272858889609 -0.0635823760905949
 69.0451702196947110 20.7381670556978861 -0.9987123281039717
 67.7157631566390137 18.3603614312258507  0.9227813075452674
 66.4012393867149342 15.9803665458232569  0.0257813932816582
 54.2651226976175352 13.6002115485884207 -0.9865745146514050
 52.8611138618985663 11.2141345381928392  0.5926803441404161
 51.4626425388905986  8.8777810344571204  2.3392945530221843
 50.0822699035531613  6.5598427348406991  1.3384867101432927
 48.7095684062848164  4.2465798493151752  0.3764903510227372
 47.3362312185687912  1.9313743003687940  2.2772970652500399
 74.4608736597609067 25.4609898680546536 -0.0939699824949601
 73.0985806907264362 23.1238160753887279 -1.0157482653618664
 71.7478265453716801 20.7689233120295320  0.9099199712558809
 70.4179027742870147 18.3992443833500481  0.0017973189360658
 69.1068397282329130 16.0222634184407369 -0.8910257050868505
 56.9863836949937905 13.6292586928887420 -1.4637155708920262
 55.5884432583682297 11.2176805836828581  2.3282554874691819
 54.2031875432122305  8.8770339571649259  1.2303468229292149
 52.8294924461108977  6.5578663868563227  0.2675676961600826
 51.4582598835640184  4.2411907733544201  2.1714304676163243
 50.0861887275708142  1.9250002209702448  1.2465473769119175
 77.2053450636038718 25.4609900660186206 -1.1070644028163441
 75.8299281923184907 23.1380865539486855  0.8348997486799197
 74.4676483337667321 20.8001130685398685 -0.0593613617661812
 73.1283539613332607 18.4430363979232972 -0.9487034857028186
 71.8135610625160581 16.0718986796973873  1.0122627561292303
 59.7055039908716907 13.6002097519266094  0.9015545699282472
 58.3800584571801267 11.2176828636063188  0.4291343583873618
 56.9853151146339343  8.8785443590961162 -0.0425104611961357
 55.5958919660456772  6.5727345843301350  1.9704926136120262
 54.2204492929720701  4.2517500266176507  1.0809200194568451
 52.8452765949977064  1.9283537969000011  0.1803123542958107
 79.9595852444388129 25.4609902083680524  0.6858391987273923
 78.5798858472853112 23.1444602662150558 -0.1958499230132532
 77.2032654125670632 20.8228808198868514 -1.0659070716855119
 75.8455612876952472 18.4834018493376071  0.9132199215380112
 74.5248319729019641 16.1224335183004150  0.0533723819503580
 62.3985978498631439 13.5818060062352259  0.0677094103257976
 61.1095166647940360 11.2141344654826671 -0.6777008654934636
 59.7653128236636277  8.8770344115516746  1.5270423611257311
 58.3726087074663340  6.5727339076996749  0.7868965268439754
 56.9853156246826344  4.2590510661032894 -0.0425102812512623
 55.6037617304392171  1.9337814539784632  1.9299920595767124
 82.7191796935720021 25.4609898707147408 -0.3918739535695074
 81.3389739462482879 23.1411065261138518 -1.2620848754071283
 22.9666942190030099 20.8282695739214638  0.7714189435456236
 21.5907034918853320 18.5096173567562268 -0.0615249078365706
 20.2528907862368506 16.1661938600501287 -0.8851669501004725
 65.1017064307109905 13.6033554644086578 -0.8352609378737302
 63.8157606357659759 11.2305619742410574  1.1897840664679864
 62.5058586954321740  8.8777813036652002  0.4180946754478694
 61.1411385616252119  6.5578661651805010 -0.3525882252711440
 59.7480510402017657  4.2517505131845024  1.6764689558915846
 58.3647384573845400  1.9337815498317874  0.8273968424192003
 28.4937499731211368 25.4609884972919147 -1.4425217187137962
 27.1121964945263834 23.1356793133771959  0.5299806506238823
 25.7288821831962942 20.8177102716218592 -0.3190916617879245
 24.3379278222212285 18.5115939598739381 -1.1324440545359811
 22.9710762189213042 16.1916769625934478  0.9392826060145258
 67.8085594299996330 13.6450431461796473  1.0798743309621657
 66.5228340930413538 11.2699835998105033  0.2311437982866240
 65.2261746161761948  8.9032660054484669 -0.5998652649243535
 63.8862306178739416  6.5598432012150569  1.4189024098527461
  5.5249777406168423  4.2411899244624749  0.6283443898352403
  4.1400918770479880  1.9283529081674646 -0.2229471775500459
 31.2514521899565985 25.4609887769573291  0.3068542789276544
 29.8731727725514311 23.1356793643765677 -0.5726145573586228
 28.4937498369429498 20.8104083518465295 -1.4425218114844272
 27.1043283805692639 18.4967232873834355  0.5704813930056052
 25.7116205831242723 16.1924266340005971 -0.1696647294528909
 70.5197361270156620 13.6959625534256677  0.1409545255954083
 69.2331886108639480 11.3201395374740574 -0.7217793927344553
 10.9521027751743549  8.9470267332693663  1.3040049836282344
  9.6313733769921868  6.5860583617880604  0.4441575135564665
  8.2758000754751428  4.2465790448529912 -0.4191250860510058
  6.8970489785658984  1.9249993640449312  1.5532273800776759
 34.0110466576862862 25.4609894291662044 -0.7708588742209184
 32.6337884329829748 23.1411056198086378 -1.6653445086554517
 31.2564869397120617 20.8177108038910816  0.2764576838781174
 29.8810403282307000 18.4967226725800913 -0.6131155505581414
 16.2458766393352789 13.7493204838282228 -0.7632528479292215
 14.9571986221822879 11.3734975991153551  1.2164228219147069
 13.6633734713846362  8.9975614904665839  0.3451146300831639
 12.3507113096438950  6.6264237541539632 -0.5363287195119534
 11.0092864858604020  4.2693469621292923  1.4167387872158581
  9.6470064100395856  1.9313736009229299  0.5224777081798017
 36.7674175032447224 25.4609894116293951 -1.8203648732201598
 35.3907459082571094 23.1444594433751476  0.1108301664630262
 18.9541007204315868 13.7994763698657010  1.1262335511223740
 17.6683750364006009 11.4244170329600490  0.2775030464541109
 16.3722256657446081  9.0471967608710244 -0.5940065242325749
 15.0590320361355410  6.6702158116577515  1.3555800674773402
 13.7291079963512157  4.3005368638961592  0.4474574520737312
 12.3804845884628048  1.9456441375635900 -0.4692838568909523
 21.6611740921121338 13.8388992672873119  0.1675933409245736
 20.3773589353931364 11.4661040334806703 -0.6497713375397673
 19.0756952174700203  9.0890939818692189  1.3315960243061606
 17.7611711958648932  6.7090984192675700  0.4345960783964911
 24.3695491997492333 13.8553266749941901 -0.8073310108798201
 23.0783357467561352 11.4876536199897217  1.2896678959514341
