Nb
 1.0000000000000000
    56.9852626216473368    0.0000010415064528   -0.0423858400735107
    28.4936971567969195   25.8525190928012343   -1.4423971723246785
    -0.0021306941731196    0.0000000219721493    2.8424096005155990
 Nb 
 231
Cartesian
 28.4547307794187674 16.2076980167681306 -1.2785208500334648
 33.9981196855436778 20.8238553931820185 -0.7501278676741433
 32.6237040774638487 18.5070129615099006  1.1762772749994859
 31.2449310340063064 16.2076974643860332  0.2864058189434486
 39.4978438032295998 25.4609891204761247  0.0373537027130696
 38.1264153387445006 23.1415028720994229 -0.8836576713896283
 36.7552138641138626 20.8261428701131059 -1.8192497421598315
 35.3829517695154934 18.5111704252610139  0.0681882291362369
 34.0050588144081090 16.1923972234537104 -0.9216080431414773
 16.4371705889763362  4.3177297527415641  2.3502246587873148
 15.0932862060200641  1.9549358463367181  1.4220289358088134
 42.2311765803651795 25.4609892909898079 -0.9539028647074623
 40.8671889652237397 23.1305890663236760 -1.8933552771087596
 39.4955346228357982 20.8113176708895651 -0.0018111081411863
 38.1201878095172830 18.4966380534410604 -0.9726478278394157
 36.7329633641572357 16.1790018984100996 -1.9799638118860572
 21.7881369620072434  9.1026240804650520  0.4308310149769942
 20.4642347956702402  6.7232428248241316  2.3682975765638723
 19.1338490423245808  4.3440667068058891  1.4377636455459570
 17.7957366361272520  1.9704940627633047  0.4922072588273667
 44.9436316988611466 25.4609894153981529 -1.9039314941703758
 43.5869832729007740 23.1145237898723224 -0.0203683297861561
 42.2220695282945258 20.7831289678725888 -0.9866845233688166
 40.8440572395428489 18.4619771744573420 -1.9673268843021565
 39.4467460770433860 16.1434842048023839 -0.1309714294231157
 27.0951458943487360 13.8562634496584547  1.0421691494157650
 25.7918807394394349 11.4790758178899708  0.4393255523279261
 24.4799540189659446  9.1090394715866019  2.4256032089356356
 23.1522110893484125  6.7357153010983177  1.5057838941699755
 21.8185571173316504  4.3589528142947991  0.5603343974094894
 20.4821049982700352  1.9812381219653110 -0.4005246748644312
 47.6343286380628612 25.4609895624382148  0.0281085704540562
 46.2894336769010479 23.0989658050695432 -0.9501899883204521
 44.9329982851201493 20.7517299899501921 -1.9345822826781289
 43.5563951446205877 18.4189521668159273 -0.0859529254921760
 42.1594037672852266 16.0954703398870649 -1.0953566625043401
 29.8498316537583896 13.9162327940703765 -0.4960481664216588
 28.5000635331762240 11.4380369226045850  2.6707201779727505
 27.1632655988233793  9.0792882032408126  1.6492132853466541
 25.8315736028431608  6.7215284915903695  0.6825956450206364
 24.4956642172338022  4.3564694520757259 -0.2848033684673761
 23.1565519807570404  1.9840114762701035  1.5812920692142185
 50.3136332421617496 25.4609897146489743 -0.8472397821871376
 48.9758019975896772 23.0882219945097660 -1.8429218635880171
 47.6275460007648377 20.7253932499844318 -0.0046336232632991
 46.2624864129804720 18.3775821274937385 -1.0169716181156518
 44.8707088787934794 16.0449597914495143 -2.0387106379085664
 32.6023868832562869 13.8562632420593719  0.8081214263613231
 31.1953360816651823 11.4380368686771128  2.0219606715879213
 29.8487662638905071  9.0507401051363860  0.9251394696540736
 28.5081551280198866  6.6948800625510652 -0.1077300512203937
 27.1694719244118836  4.3398232999405737  1.7360270265003686
 25.8313359816610060  1.9782401297151169  0.7434099678794174
 52.9879696880760704 25.4609898265436492 -1.6960387474985863
 51.6502489313434907 23.0854489892499259  0.1388950016899880
 50.3122539524160146 20.7105074187574054 -0.8820626659035422
 48.9600623618330104 18.3462172005463202 -1.9165092096457332
 47.5774558507166034 15.9991300055409997 -0.1181651375801694
 35.3228097328686417 13.8483273617323501 -0.2218142211739807
 33.9056518052596587 11.4790750050327048  1.4109589612119899
 32.5342667930416241  9.0792872834847120  0.2010694445580651
 31.1893776269480121  6.6948795931937761  1.9580141571296794
 29.8487661502026072  4.3295113142345842  0.9251427895542729
 28.5096277827563931  1.9704662694875639 -0.0836951798494990
 55.6622947148653111 25.4609898114101050  0.3122320446690422
 54.3250328771479971 23.0912205647055124 -0.6989869798680122
 52.9893608984056428 20.7129912478352161 -1.7272001357095510
 51.6459078721003095 18.3337451106537053  0.0633871628766363
 50.2818338166739238 15.9668359784443847 -1.0115660086981471
 38.0308830870109631 13.8193133568606115 -1.1789885082769924
 36.6039168390305463 11.4774218985573420  0.5606829026439005
 35.2154473744821246  9.1090391308352476  2.2670916655613285
 33.8659587994404703  6.7215277168976417  1.1676896657314795
 32.5280604761952716  4.3398226408910938  0.1142587401650791
 31.1879042706122576  1.9704659738309129  1.9339814033796852
 58.3424630611445139 25.4609896160841664 -0.5172539129273975
 57.0033246843827683 23.0989941583161702 -1.5260920607205011
 55.6631685006142547 20.7296375102092902  0.2936305866564711
 54.3252701066999322 18.3479324341164691 -0.7598003467778309
 52.9757814871955262 15.9604210928942720 -1.8592023751818212
 40.7411260435971627 13.7738341420238655 -2.1275176000704326
 39.3111407415892629 11.4463271778869693  2.4984386727468029
 37.9093951175829531  9.1026242165459887  1.4194552986290037
 36.5453210812142615  6.7357150300940134  0.3445021498632030
 35.2018680308834320  4.3564689071653380  2.1350894598485395
 33.8661960819864305  1.9782395878639949  1.1068763176056600
 61.0226314137233317 25.4609894114907895 -1.3467398744537209
 59.6816011805175322 23.0989938877289198  0.4915845198420806
 58.3424627569969871 20.7399487996656120 -0.5172534511680881
 57.0018513283586046 18.3745806022362750 -1.5501248327772390
 55.6569621120008975 15.9901728503809082  0.2068198628919440
 43.4523970685492102 13.7218177400755668 -0.2284405876442617
 42.0245862398203940 11.3999256370691491  1.5725464130580269
 40.6137730670001247  9.0703301714921984  0.5260544302748067
 39.2311665647995298  6.7232429740444619  2.3243985156313127
 37.8789749778333658  4.3589527450879491  1.2899519827458925
 36.5409800272297289  1.9840111809328409  0.2689943250681789
 63.6969564091643718 25.4609894055675205  0.6615309099464600
 62.3598929728521725 23.0912200082665180 -0.3355206368167862
 61.0217570295138927 20.7296368185834723 -1.3281376976387174
 59.6830737850788751 18.3745800663993570  0.5156193693996720
 58.3424626242060640 16.0187200004584938 -0.5172501416198334
 46.1666426730833095 13.6695345506565626 -1.1646571268967931
 44.7388318441838990 11.3476424482159750  0.6363298730949377
 43.3205200386479490  9.0245003921243292  2.4465999252479738
 41.9287425048455233  6.6918780613707725  1.4248609107693211
 40.5636829198298656  4.3440669248710115  0.4125229269100750
 39.2154269386033505  1.9812381618902446  2.2508111746976134
 66.3712928680173633 25.4609895363522760 -0.1872680718959638
 65.0346769448603794 23.0854486404555388 -1.1734027501333322
 63.6955647189366161 20.7129906896353511  0.6926926845527493
 62.3596552966546085 18.3479315721940743 -0.2747063364342998
 61.0279633561892965 15.9901720297436842 -1.2413239908453237
 48.8800881555977682 13.6231330257618861 -2.0905493888714077
 47.4501028680990515 11.2956260373695763  2.5354068776425631
 46.0318251390775330  8.9739898369532263  1.5032459362643684
 44.6348337682003802  6.6505080205104434  0.4938422018631371
 43.2582306369768617  4.3177301810144462  2.3424715677988535
 41.9017952345999873  1.9704943500280963  1.3580792830316333
 69.0505974385348509 25.4609896853972728 -1.0626164473876809
 67.7091239253415864 23.0882220141374361  0.8084139759381084
 66.3726718148924562 20.7105072986838437 -0.1524451058902448
 65.0390177924754198 18.3337448155055363 -1.0978946085728067
 63.7091441784320622 15.9604206465596477  0.8246956720763262
 51.5873120946699970 13.5920382648099558 -0.1527936249959793
 50.1603458286984889 11.2501467802888726  1.5868777816884567
 48.7444828191328625  8.9259759788630522  0.5388606909683171
 47.3471716549382009  6.6074829894176839  2.3752161405280940
 45.9691593688973015  4.2863312024646234  1.3945737818534809
 44.6042456251102379  1.9549363679428480  0.4282575951947986
 71.7412943605450266 25.4609898267330301  0.8694235899909633
 70.3954922767708950 23.0989660683529863 -0.0843179905788160
 69.0573798485559820 20.7253934022044142 -1.0298743726735762
 67.7248634293685825 18.3462173111364599  0.8820012836618125
 66.4030919211962924 15.9668360112307308 -0.0229417610548880
 54.2855771026690093 13.5903850723089352 -1.0030696413295195
 52.8684191540573352 11.2211327966148797  0.6297034794200095
 51.4582655421544857  8.8904583165553710  2.3878530565795346
 50.0710410590272161  6.5728220787409972  1.3805370642406758
 48.6956942637460699  4.2581425118553708  0.4097003360344255
 47.3240399039234561  1.9388710795760522  2.3012445089590279
 74.4537494596323057 25.4609899439817795 -0.0806050713326354
 73.0979426778543200 23.1145242831723614 -1.0141396998611369
 71.7519276029101860 20.7517303882574815  0.9000741818782654
 70.4224394172439645 18.3775824350181196 -0.0175365145391775
 69.1074699072928951 15.9991302636642807 -0.9163430127526533
 56.9958929582645055 13.6314232412176466 -1.6140713509948990
 55.5867111894989563 11.2131970955519034  2.4421773758097460
 54.1861700413419172  8.8770628830053546  1.3294972886390668
 52.8082771201935870  6.5582897216158740  0.3397009865759679
 51.4360149875315003  4.2433172731075643  2.2271389494116547
 50.0648135174279005  1.9279572883030318  1.2915468740420524
 77.1870822056776973 25.4609900837535790 -1.0718616709841611
 75.8177369186703345 23.1305898651316078  0.8588472427371819
 74.4628563357847071 20.7831295476239006 -0.0478236009568307
 73.1285307049148940 18.4189526147519871 -0.9485552652880139
 71.8142169013456737 16.0449602198239063  1.0042023822060284
 59.6890344582806733 13.6314231234329100  0.5795787979915363
 58.3413973529639591 11.1532275551984164  0.9039373418410543
 56.9462978340581145  8.8617623632463971  0.1214833988236985
 55.5653941478486217  6.5624473189856909  2.0740215405785594
 54.1931091151163002  4.2456047098138487  1.1580170536654515
 52.8193988185568841  1.9261437317505627  0.2433911257112568
 79.9349587792044787 25.4609902361275324  0.7399219060862691
 78.5585104425227883 23.1415039492719714 -0.1508502942627593
 77.1893911555538210 20.8113184757507135 -1.0326969387186096
 75.8408686189192593 18.4619777970421026  0.9328187297528114
 74.5255220521583084 16.0954708593419618  0.0608484072022059
 62.3993482634821817 13.5903842982043148 -0.0314362953133080
 61.0960829453171073 11.2131966201597866 -0.6342799244857342
 59.7364981380744524  8.8617620677796722  1.6864100596531515
 58.3413978430736293  6.5641340883044661  0.9039486787964234
 56.9584598708680616  4.2516834739338405  0.0470093676357224
 55.5783704798857130  1.9297876392371753  2.0045974715511670
 82.6936452521347576 25.4609902678208009 -0.3243843921893962
 81.3130956655416952 23.1433177695772336 -1.1990058602410902
 22.9444490674056674 20.8261430608540046  0.8271278101463211
 21.5794753191511930 18.4966378828573177 -0.0194742428841998
 20.2529172159847199 16.1434837309951682 -0.8611508973342176
 65.0976133361098022 13.5920381876285195 -0.8817140778257688
 63.8143750178156850 11.2211327559284104  1.1781974620877427
 62.4966247529725081  8.8770626567667215  0.4784008941729676
 61.1174012475770780  6.5624467338114636 -0.2661231909484200
 59.7243351248388805  4.2516832063814292  1.7608899394862692
 58.3413973006639139  1.9314959232080675  0.9039500238042983
 28.4698852417002684 25.4609891501476433 -1.3694343759634953
 27.0868047071195264 23.1396728292507738  0.6045865143043118
 25.7015429626248952 20.8238558797310276 -0.2419935770885515
 24.3167111200663371 18.5111706307597323 -1.0603095323764513
 22.9666999466567816 16.1790016088691466  0.9878419688704678
 67.8048374259346502 13.6231332629432682  1.0560411496495112
 66.5224486225865519 11.2501470275871363  0.2210233103634821
 65.2245289164051911  8.8904584916435745 -0.5799527573248857
 63.8745177562533257  6.5582894676820427  1.4681987302243289
  5.5044232407360481  4.2456031758922261  0.6922685938083873
  4.1191614790375422  1.9297862671025621 -0.1543115118758074
 31.2297780978171460 25.4609890587321246  0.3773122002520945
 29.8498315088140735 23.1379641729146179 -0.4960608644326742
 28.4668937522660741 20.8177769011222331 -1.3530007574615952
 27.0738275716198054 18.5070133868607876  0.6740123851102706
 25.6946041187554428 16.1923975060672696 -0.0705116783885550
 70.5182829675354412 13.6695349324368589  0.1301487506121468
 69.2326917954858914 11.2956263900355900 -0.7275058402188742
 10.9530490324194023  8.9259753345587978  1.3114259509900170
  9.6264909122998805  6.5728211747279461  0.4697492814196544
  8.2615171538235366  4.2433160252269690 -0.3768527839210454
  6.8781331588546264  1.9261423571173804  1.6068950321744027
 33.9912807280205556 25.4609889474795139 -0.7101236173672321
 32.6128583512850909 23.1396724683595885 -1.5967083063270684
 31.2327689633858476 20.8177766680523568  0.3608798164677297
 29.8498309477723893 18.5053261241354434 -0.4960594958258677
 16.2472659643952788 13.7218171851497601 -0.7636819567603784
 14.9587003018472835 11.3476418765104690  1.2139570161520714
 13.6657068179166163  8.9739892389842932  0.3470408092463957
 12.3503602465957627  6.6074823045758935 -0.5249295228085115
 11.0018376986994522  4.2581416442933797  1.4405861335147856
  9.6327184050735521  1.9279561735093820  0.5587394797611694
 36.7499672044471808 25.4609889500838378 -1.7744299018469374
 35.3718300329287771 23.1433164350818821  0.1644980554185639
 18.9585370828177560 13.7738337022967769  1.1353950583345553
 17.6729459078907105 11.3999251620824786  0.2777404707659879
 16.3770119853692080  9.0244998915788699 -0.5963131576574192
 15.0626981699931530  6.6505074967301647  1.3564444865686764
 13.7283725267225751  4.2863305679847743  0.4557128134275026
 12.3734919494409485  1.9388702688175665 -0.4509580341402424
 21.6687802487488881 13.8193130658280179  0.1868659129459236
 20.3863914691482542 11.4463268585697158 -0.6481519192232595
 19.0837589713034959  9.0703298390249074  1.3242322464503109
 17.7687894621962599  6.6918776799836959  0.4254257583612568
 24.3768538492063485 13.8483273301387495 -0.7703082142620570
 23.0936155080265699 11.4774219424185482  1.2896033348744018
