Nb
 1.0000000000000000
    56.9852626216473368    0.0000010415064528   -0.0423858400735107
    28.4936971567969195   25.8525190928012343   -1.4423971723246785
    -0.0021306941731196    0.0000000219721493    2.8424096005155990
 Nb 
 231
Cartesian
 28.4744746993902780 16.1946218629883063 -1.3795783411418139
 34.0032231409361358 20.8308501578747283 -0.7653368191843523
 32.6325576961838166 18.5148998848375363  1.1406057478807907
 31.2593413591377001 16.2002714328510642  0.1845563144965147
 39.5008936457014954 25.4609891968824726  0.0349806014739464
 38.1296759164318360 23.1425517854237235 -0.8875245976560303
 36.7580850280515889 20.8295399144621740 -1.8262653817102272
 35.3845317652760656 18.5166757449758173  0.0533560607761941
 34.0055555977485255 16.1977007008839564 -0.9530317699895180
 16.4360809183973693  4.3188779725779538  2.3504414288774158
 15.0933458800912668  1.9557387725952149  1.4220720706523955
 42.2324933419944131 25.4609893069891591 -0.9543733723107166
 40.8689991083111792 23.1300717039492305 -1.8946650245875252
 39.4965706424618688 20.8109739608747191 -0.0043046062638855
 38.1190298442272990 18.4966546398458185 -0.9770860094932003
 36.7296792905192930 16.1792944388543631 -1.9854240794721076
 21.7852484996297164  9.1006291597965756  0.4341938569041789
 20.4626025283501676  6.7224722322688999  2.3712951712813046
 19.1320449749189017  4.3441792961215642  1.4396220320211153
 17.7942844510935814  1.9709106757960171  0.4933278264996584
 44.9430221748040637 25.4609893947276440 -1.9032886355377343
 43.5870429511500816 23.1137208545321080 -0.0203251948066511
 42.2218646883267752 20.7816853322659796 -0.9873774323602765
 40.8424644086710202 18.4601761836930756 -1.9686440046894964
 39.4436360556577696 16.1414098042674503 -0.1316870466230427
 27.0887300162207119 13.8479151904151578  0.9736083299229037
 25.7794752757059946 11.4672461307562958  0.4498426563827021
 24.4760129621925948  9.1005877575607528  2.4381403602457765
 23.1501605244319997  6.7312484131643071  1.5144918120771986
 21.8163085413307734  4.3569427973646242  0.5655496994318748
 20.4795868744831253  1.9807879994236877 -0.3974995965675635
 47.6321991514860130 25.4609895002539872  0.0300177615601651
 46.2879815123179341 23.0985491220209695 -0.9490694265544123
 44.9319085851436810 20.7505817330188655 -1.9343655241265227
 43.5549191910430480 18.4172665160651157 -0.0865616354157203
 42.1575337007176287 16.0936012301006706 -1.0959834645706756
 29.8693986443314010 13.8698288146141451 -0.8736174434290686
 28.5001103872425361 11.4377155666749175  2.8075623142986097
 27.1588972372834050  9.0676705320341799  1.6891116516321896
 25.8284375600281670  6.7095284989084725  0.7014201916263182
 24.4931632250379465  4.3496791649239714 -0.2748876172119713
 23.1539355395614344  1.9816384018592266  1.5869587459441821
 50.3108133421321639 25.4609895964343522 -0.8433291101225503
 48.9732839125728034 23.0886719603637722 -1.8398968209192936
 47.6257419387726486 20.7252805818352286 -0.0027752875368852
 46.2609737248497126 18.3767975025079799 -1.0166399207809835
 44.8692840013967853 16.0437518720105636 -2.0394915313349458
 32.6060891394171719 13.8593707407265772  0.7747129239806977
 31.2116430480685061 11.4598784278458687  2.2775176643277444
 29.8426143634966010  9.0613492808896332  1.0324636885466203
 28.5038630107617692  6.6899526813377097 -0.0689865449185231
 27.1671933249069824  4.3318700082135626  1.7514066062195663
 25.8298424091043124  1.9738787595418443  0.7512055706605421
 52.9859689404657388 25.4609896650827707 -1.6903366447165586
 51.6476325700060457 23.0878217756506459  0.1445615756007682
 50.3100054599008999 20.7125172428510602 -0.8768475377015217
 48.9584300399135088 18.3469876948218520 -1.9135118069934964
 47.5756553893387562 15.9989023655566616 -0.1180006940969581
 35.3201534095434440 13.8497968352954040 -0.2130193104665516
 33.9055101247493198 11.4915118331228587  1.4755940980322919
 32.5267180086905725  9.1017462338234374  0.2878944329019237
 31.1801695206404617  6.7073129981526742  2.0063000349471429
 29.8455518017889645  4.3309419464090944  0.9463257196209809
 28.5092847826826983  1.9683076444535534 -0.0742914866027230
 55.6621225191894808 25.4609896775578335  0.3187031498561287
 54.3235394185094904 23.0955815354564145 -0.6911915361039732
 52.9868601188084085 20.7197810818989190 -1.7172847201296360
 51.6438573249285326 18.3382117330141057  0.0720945749770700
 50.2789451629536899 15.9688307988215321 -1.0082036237496501
 38.0290341162072565 13.8175572350904829 -1.1734108300047885
 36.6072793270744299 11.4795594760926640  0.5832507077621898
 35.2135634099494723  9.1195028366689268  2.3089260853245239
 33.8580816216868925  6.7381303218548245  1.2040961214444243
 32.5225963308952046  4.3506876962356005  0.1363747196358508
 31.1867923305853623  1.9736472440417652  1.9452687299131242
 58.3429939481927278 25.4609895956485346 -0.5099492818954776
 57.0029817695975183 23.1011525566635463 -1.5166885325398907
 55.6608901823311939 20.7375903085057551  0.3090096774178988
 54.3221343205323492 18.3599318153404063 -0.7409767715252160
 52.9718402809609259 15.9688724276401004 -1.8466665281562888
 40.7406783548455635 13.7720292559821438 -2.1258562476022789
 39.3141224792052242 11.4449847976904024  2.5063647535348790
 37.9113264837062900  9.1039046455591794  1.4365953318617715
 36.5413115473793511  6.7423589143609233  0.3660482980295524
 35.1956728578659792  4.3656179418289920  2.1529454958900485
 33.8623857681034224  1.9838001342801848  1.1190425152371140
 61.0213027797486447 25.4609895056362063 -1.3377315681023918
 59.6804892934768674 23.0958127399295030  0.5028717257900178
 58.3392486550051785 20.7385181100218112 -0.4960710402567930
 56.9975597840262154 18.3795074538613186 -1.5113830368622723
 55.6525938123067547 16.0017898595638854  0.2467148821350967
 43.4518002038398379 13.7203476636328201 -0.2288634899831611
 42.0258147260862245 11.3979752983923639  1.5746722081944220
 40.6151037746499313  9.0683391280820960  0.5323364643123174
 39.2297698373043247  6.7235059515200124  2.3343449332549597
 37.8741944292175035  4.3617200271248660  1.3012381546696046
 36.5354414727580092  1.9873191002506188  0.2793994660631113
 63.6926539484555008 25.4609895100165780  0.6711827181014217
 62.3560827223369500 23.0856597372121826 -0.3233545112343325
 61.0162930768951171 20.7187721145855619 -1.3060220085980556
 59.6738661352451203 18.3621468525514331  0.5639038329437285
 58.3363109853233084 16.0081104562677794 -0.4099317906168207
 46.1650154974321438 13.6682308098304119 -1.1661569542716617
 44.7379487426445479 11.3453690188152887  0.6353345828674988
 43.3202786739109200  9.0215917031548081  2.4477781625747581
 41.9278331107080362  6.6895081175677396  1.4285236026802379
 40.5607533803029909  4.3433181209999594  0.4180874986811077
 39.2105502746638379  1.9817718512706750  2.2575501217910405
 66.3657073756081388 25.4609895870529961 -0.1794849534358851
 65.0291384384865410 23.0821408825141567 -1.1629976436976515
 63.6893696498994899 20.7038419636709250  0.7105485994091605
 62.3517782792662700 18.3313294591531672 -0.2383003023307428
 61.0204145572301542 15.9677133518193752 -1.1545010236257456
 48.8760287130351827 13.6223639243645547 -2.0920882382111379
 47.4466629413002110 11.2927758314033184  2.5321568361397451
 46.0298773159836045  8.9704431438488168  1.5010636006753364
 44.6339292807662247  6.6471826546035224  0.4937099315115805
 43.2570105268998901  4.3153981220588067  2.3442214559980745
 41.8991640696097747  1.9695746771725609  1.3612907577995150
 69.0464249475045193 25.4609897065318975 -1.0579881390412116
 67.7042472801814341 23.0876883827160917  0.8151529170668551
 66.3678912854154106 20.7077401177944367 -0.1411589682094270
 65.0350082926140232 18.3271011080256372 -1.0763485783694788
 63.7072601530958096 15.9499572070737301  0.8665296685207320
 51.5788997299595806 13.5937909840703970 -0.1525547177018107
 50.1533519736658349 11.2476785982213308  1.5807915947161724
 48.7409037782341770  8.9223519767724220  0.5325762757219071
 47.3464902617395467  6.6043600424471940  2.3714930334279249
 45.9697250216681184  4.2838715007393278  1.3931984759863230
 44.6044557093942515  1.9535635916480942  0.4285577587206680
 71.7400884389260511 25.4609898410088320  0.8710877924286752
 70.3928611103358861 23.0998857747565225 -0.0811065075435913
 69.0544503222469501 20.7261422369439039 -1.0243097981679339
 67.7234667052056238 18.3459543792084219  0.8919476994736445
 66.4050233478491236 15.9655556548187523 -0.0058017582661070
 54.2731714962407068 13.6022142089137290 -0.9925548696258913
 52.8590301436724346 11.2228831768536885  0.6143843035616953
 51.4553286722745611  8.8894410473570247  2.3707448824660262
 50.0719275041321126  6.5722125864706156  1.3703636337102785
 48.6985567557186840  4.2574278401502559  0.4044028405235914
 47.3271707505689534  1.9380972211785348  2.2985670529277922
 74.4558474363744551 25.4609899484720010 -0.0816731455949922
 73.0981527591831934 23.1158970763364309 -1.0138395277826999
 71.7507074943856509 20.7540624707253123  0.9018240798088396
 70.4215300309310237 18.3799524033259125 -0.0138738103063760
 69.1088006636853294 16.0011213386068505 -0.9100609463682089
 56.9959374705039252 13.6317445619415167 -1.4772436480703388
 55.5802960764433180 11.2215448623306546  2.3736185068790139
 54.1900888694916958  8.8816039527245252  1.2796459655813790
 52.8140289703666994  6.5630543417474430  0.3154996586506283
 51.4417788668647802  4.2465998354800556  2.2155641838714946
 50.0702870872712182  1.9290263590086107  1.2851835806317260
 77.1919737942928776 25.4609900580804371 -1.0759654361594642
 75.8208677829909732 23.1313637059845156  0.8561697876189267
 74.4634219864446862 20.7855892697799121 -0.0491988998244933
 73.1276262084210487 18.4222780064348619 -0.9486875318195874
 71.8139755631538037 16.0478689260671921  1.0053806399632013
 59.7053398020097177 13.6095810409590801  0.8351245989357573
 58.3609654137924636 11.1996328054828318  0.5263873632850801
 56.9660409887838171  8.8748386580346796  0.0204315695628257
 55.5773000437461633  6.5722862405419678  2.0309302621678258
 54.2009807150597069  4.2526393673697180  1.1379616271794331
 52.8254777102151323  1.9295766203086830  0.2327909943072892
 79.9407996418657092 25.4609901649694379  0.7325208406506406
 78.5639840738016915 23.1404347668318167 -0.1572136144515256
 77.1922536603268838 20.8120331240123271 -1.0379944450677230
 75.8401871740040860 18.4651007965569640  0.9290956221155032
 74.5235742081835184 16.0990175918107639  0.0586660746302408
 62.3992068357348444 13.5779480826603187  0.0331979655483544
 61.0997861519159997 11.2100895037406811 -0.6676852309798665
 59.7509074501599997  8.8691889539177851  1.5845659199491888
 58.3544177284107306  6.5687539409925622  0.8498933818808163
 56.9656584855002492  4.2572831654422343  0.0206210776055489
 55.5829436250794586  1.9333285475646380  1.9908496333814967
 82.6981899494318640 25.4609901924395992 -0.3343694564062999
 81.3191746627257430 23.1398846659458179 -1.2096060940089561
 22.9502130647844567 20.8228603439891060  0.8155529266439220
 21.5803617060509048 18.4972473907283863 -0.0296477462876640
 20.2493380362387931 16.1471078249277582 -0.8674353040365224
 65.1009761558887163 13.5899007678937149 -0.8591463387117958
 63.8117193757689947 11.2196634246220093  1.1869927871403017
 62.4971215028289819  8.8717593461687265  0.4469793171163734
 61.1262543212113130  6.5545602099054205 -0.3017931135954932
 59.7299470867712046  4.2495844766598889  1.7362947116846370
 58.3446768506904831  1.9326494956577402  0.8896518119213700
 28.4727758831071434 25.4609891329853397 -1.3803214740845504
 27.0913779459418045 23.1361317814161929  0.5908384729707725
 25.7094148304243113 20.8168209125911865 -0.2620493875651836
 24.3224630573344776 18.5064058028112726 -1.0845113322278381
 22.9637628582702931 16.1800189495156452  0.9707336050988078
 67.8078193397643076 13.6244756851554456  1.0639673102752933
 66.5206000808717732 11.2519031461143957  0.2266011620551905
 65.2212450915762219  8.8901658517113376 -0.5854124685768640
 63.8760975388920968  6.5527843719930408  1.4533673096891331
  5.5095263355736099  4.2386088220213836  0.6770601545686782
  4.1219393437618326  1.9273704672640075 -0.1662816826216978
 31.2318360240845685 25.4609891120286882  0.3671471260541777
 29.8531111783552348 23.1368107019753069 -0.5103593218085410
 28.4740926448501845 20.8121770817436449 -1.3793897615121795
 27.0857339957871091 18.4971740582228534  0.6309197110341435
 25.6985228182431875 16.1878562627671947 -0.1203645824282785
 70.5195115520226068 13.6714852808332257  0.1322746174561771
 69.2322443307127600 11.2974312452034660 -0.7258443540536541
 10.9499392461055951  8.9280496418971644  1.3107105094573501
  9.6253329691539236  6.5728046380833440  0.4653113357067986
  8.2643881332514262  4.2399191930036917 -0.3838681948233215
  6.8816659852140161  1.9229329055722446  1.5992025709638493
 33.9936542478881236 25.4609890633300147 -0.7181911437727346
 32.6156363312846054 23.1420885276217767 -1.6086787085548544
 31.2383812748510756 20.8198756938323974  0.3362838300578003
 29.8628516045319969 18.5007063935287732 -0.5501169593047791
 16.2463829355902476 13.7240906080685043 -0.7646772039842266
 14.9581035870860681 11.3491119321151928  1.2135342078366957
 13.6638369178222501  8.9758583128077962  0.3464141036181382
 12.3487675056827193  6.6092832784039874 -0.5262465683049956
 11.0028736850195799  4.2584854046766960  1.4380927027065016
  9.6359789021407796  1.9269074296507829  0.5548726129026957
 36.7534095694666263 25.4609890785445607 -1.7795494158505505
 35.3753629861133803 23.1465261525627994  0.1568054430889178
 18.9550971584758230 13.7766839147969122  1.1321450770137682
 17.6713188851225311 11.4012288775841188  0.2762407423980501
 16.3755872504677669  9.0257077806371981 -0.5970939655979280
 15.0612223118171169  6.6521931214852437  1.3558358186643709
 13.7281677039785581  4.2877742063181978  0.4550199213128237
 12.3753020628209747  1.9393876955857050 -0.4522677713895900
 21.6617862042081590 13.8217812797148625  0.1807799362582899
 20.3823321685569354 11.4470958715260966 -0.6496905327124650
 19.0819586642446843  9.0705574464935417  1.3243968523007179
 17.7672768534652796  6.6926622611592750  0.4257575200748906
 24.3674643170268652 13.8465768709368149 -0.7856270537698212
 23.0852032464633901 11.4756690129415571  1.2898429907251512
