Nb
 1.0000000000000000
    56.9852626216473368    0.0000010415064528   -0.0423858400735107
    28.4936971567969195   25.8525190928012343   -1.4423971723246785
    -0.0021306941731196    0.0000000219721493    2.8424096005155990
 Nb 
 231
Cartesian
 28.4842798033811526 16.1902609305292380 -1.4158048334014106
 34.0089401459803540 20.8313523895730413 -0.7858255023748818
 32.6384734370969412 18.5144625690196207  1.1150566519633871
 31.2660458589915926 16.1946412742136729  0.1480899018020676
 39.5045200480158769 25.4609892489277883  0.0259997337940186
 38.1339224358621465 23.1414203639371081 -0.8990687970526711
 36.7620456173626664 20.8282761665397409 -1.8397952135169025
 35.3876146696710734 18.5155725962496156  0.0383485097498066
 34.0085325080507133 16.1967515412145247 -0.9678794885228749
 16.4342347342203041  4.3232478174111098  2.3522208049463371
 15.0929029299190383  1.9581501523962528  1.4217587980227364
 42.2336061563776539 25.4609893165580239 -0.9575091195477812
 40.8710369433994458 23.1279190456330319 -1.9004401263938950
 39.4985860495139605 20.8074371123374213 -0.0118550109954028
 38.1203446673279274 18.4925016907678561 -0.9849928425611770
 36.7306228938299029 16.1753001425457263 -1.9906716138725598
 21.7810412089168111  9.1045295879276953  0.4378624543918030
 20.4588328948052265  6.7263833665514863  2.3772833891942153
 19.1286070068917660  4.3475706154329874  1.4457468590028999
 17.7916139762949967  1.9729744789214270  0.4981479253010849
 44.9414990422069565 25.4609893773780414 -1.9008142662137821
 43.5865999947885712 23.1113094676807513 -0.0206384684784523
 42.2218809900653511 20.7771562389665903 -0.9899505836467344
 40.8423803100432963 18.4541929139615135 -1.9720679818754709
 39.4435732492627480 16.1348310038226295 -0.1333839485719048
 27.0928642113698928 13.8491058106025609  0.9412374794514587
 25.7737329083023248 11.4660090336650118  0.4514976214947525
 24.4706940598030371  9.1007284102007056  2.4456973442494272
 23.1456391355134414  6.7325784192382114  1.5250003425804124
 21.8118437846275484  4.3586474227155092  0.5763221652247601
 20.4752673470477760  1.9821114471004677 -0.3877817294633135
 47.6285663901103078 25.4609894547790958  0.0377057322331511
 46.2853110392281550 23.0964852631552375 -0.9442493369218778
 44.9300623919914131 20.7462118613953841 -1.9325861549534025
 43.5535593357601272 18.4109343043914677 -0.0868367406097066
 42.1567587362276015 16.0860117357634138 -1.0962219909924302
 29.8831028887662562 13.8528155917894935 -0.9549619793307829
 28.4927081564624523 11.4382555623555326  2.8160134923373428
 27.1539380779074300  9.0658745086302837  1.7041647108139137
 25.8238748184641125  6.7081299168771062  0.7179717500289791
 24.4883444532962038  4.3492004897179486 -0.2592246167979592
 23.1487904684457924  1.9818468316250712  1.6011543559028252
 50.3058559923156423 25.4609895130329313 -0.8309557177314734
 48.9689643986880512 23.0873484017183586 -1.8301789853537971
 47.6223039738875826 20.7218891930531122  0.0033495086755208
 46.2583553969511811 18.3711833264024342 -1.0140736476780841
 44.8675764924201701 16.0362816840071574 -2.0389449639318324
 32.6123163310448874 13.8581690464051341  0.7688693879369449
 31.2125805221987740 11.4680458039055200  2.3305317673253048
 29.8386829492874170  9.0664928034884706  1.0648264170075286
 28.4998525207362370  6.6904914093939771 -0.0440191557703413
 27.1623415549057725  4.3308655296139049  1.7720003288879294
 25.8245190101374433  1.9732180875880800  0.7691480818112572
 52.9804753658264289 25.4609895557535850 -1.6741474430035466
 51.6424875229580280 23.0876131538212412  0.1587571117955709
 50.3055407335327658 20.7108124833411615 -0.8660751676486880
 48.9546604330664650 18.3430764834640527 -1.9075236505329982
 47.5727926761769808 15.9926012116814356 -0.1164340165057825
 35.3220166690323154 13.8463625807007702 -0.2087586655451971
 33.9060076252917071 11.4920033847500740  1.5006720257206689
 32.5225459177955969  9.1073424342463394  0.3247370832364370
 31.1743077243082922  6.7114990501387162  2.0375947536873253
 29.8399402542834302  4.3322047508328501  0.9715255008731225
 28.5036686582206507  1.9681368371678840 -0.0532407653820512
 55.6565167000807506 25.4609895966441151  0.3377669831282779
 54.3182160590829710 23.0962419757869064 -0.6732491489559717
 52.9820414028954403 20.7202595191717300 -1.7016219276116795
 51.6393359816048232 18.3368815735670907  0.0826029210416308
 50.2747379472695144 15.9649302958824730 -1.0045350891550138
 38.0299665945416407 13.8112060348735017 -1.1690232984369855
 36.6089298246263581 11.4753730684470678  0.5988797611031241
 35.2112638636620403  9.1196410155948442  2.3363921880212577
 33.8520784153977985  6.7416748233639785  1.2343065467990624
 32.5156437224613981  4.3538101912153460  0.1634565150267069
 31.1802706919035089  1.9748113607586335  1.9685708948385789
 58.3369496112792376 25.4609896092271129 -0.4886493010522592
 56.9973657000061706 23.1013232713435350 -1.4956379822096904
 55.6560384753943040 20.7385945840231258  0.3296030516921394
 54.3175716488168021 18.3613301296250597 -0.7244256315449765
 52.9665215199826989 15.9687315650229529 -1.8391097765587594
 40.7411339063300062 13.7640028440384228 -2.1230099756090648
 39.3155775684709070 11.4376490558440000  2.5156331236420417
 37.9109062079200854  9.0992615035461988  1.4541437866378235
 36.5366905264570860  6.7417083239870781  0.3893588783414748
 35.1883316760521367  4.3673503104748281  2.1774282977183055
 33.8546027008022890  1.9853415264029317  1.1424027121337730
 61.0141008237654034 25.4609896222422591 -1.3152282898576972
 59.6739677224366147 23.0946487886734069  0.5261736884368391
 58.3336372066722291 20.7372553720660768 -0.4708717483606313
 56.9935493695315003 18.3789686563201542 -1.4864164721454411
 55.6476347924348218 16.0035856246339030  0.2617672491610626
 43.4513307356306413 13.7117436702502040 -0.2277358225226531
 42.0264858523707971 11.3890873042469014  1.5791151932587240
 40.6151878314678001  9.0606044662543379  0.5419919338630964
 39.2269509437182862  6.7188241920645986  2.3492749608954311
 37.8679362722520878  4.3602940354280486  1.3197556832063364
 36.5272969163168426  1.9876721622820446  0.2996609371933783
 63.6843134089059646 25.4609896634377932  0.6925580185705301
 62.3482997376199393 23.0841186560342067 -0.2999944986118974
 61.0093406265385028 20.7156499428437186 -1.2789407193754108
 59.6680045337921996 18.3579610979949734  0.5951974890170929
 58.3323796968407393 16.0029672758950561 -0.3775709152179098
 46.1634039896960786 13.6599267261987549 -1.1667339223840092
 44.7376114865840151 11.3360504646256466  0.6355762429556047
 43.3203622007896030  9.0124596032770281  2.4510315301080259
 41.9265813879544069  6.6821822272011069  1.4357912894741511
 40.5566679008376951  4.3390853308017503  0.4292965024999142
 39.2037495909936453  1.9804036022305056  2.2720499096907392
 66.3575476513199476 25.4609897080429803 -0.1622105412119975
 65.0209939548219040 23.0817880991115914 -1.1427362924567643
 63.6820286045496715 20.7021099267417306  0.7350310343230629
 62.3457752470023365 18.3277853687095416 -0.2080907328231893
 61.0162426372735922 15.9621176777414497 -1.1176602123296715
 48.8730714716467176 13.6155245859703893 -2.0938738593289505
 47.4454508011295601 11.2841526864933019  2.5283895560104925
 46.0299533540778754  8.9613725090556340  1.4984165456516438
 44.6341381267706794  6.6389600534627426  0.4938937311122658
 43.2556905977855521  4.3095046020075980  2.3478860591102517
 41.8953205217678146  1.9668588796908411  1.3685788229633569
 69.0404367211093728 25.4609897735037762 -1.0471082282730859
 67.6974466353438658 23.0890568104952827  0.8296526549136841
 66.3616332032086120 20.7091663118698470 -0.1226416257645903
 65.0303873569645390 18.3277519501609305 -1.0530384674988993
 63.7049606353153450 15.9498192741133078  0.8939948118811766
 51.5744612299620684 13.5899297202785512 -0.1546489276559634
 50.1518529570878826 11.2412740933491815  1.5728324507345668
 48.7414922209944308  8.9150999782231963  0.5236882875229200
 47.3483619989458404  6.5972279187275298  2.3645877432607678
 45.9714720064447420  4.2780420383337567  1.3893231623761191
 44.6045867398396467  1.9503425122351266  0.4281185013014099
 71.7379351746366325 25.4609898628579927  0.8744159096299839
 70.3890175744775490 23.1026016594929899 -0.0738184510352938
 69.0503648594278729 20.7303751328505186 -1.0131008542819997
 67.7206478024666438 18.3506362467301223  0.9068775445168448
 66.4046029860456173 15.9701988860546891  0.0117463164213630
 54.2674294477380244 13.6034510817535619 -0.9909000177654520
 52.8590766230236042 11.2203760243575825  0.6004129574054721
 51.4576623664498740  8.8858008885565667  2.3539016099534047
 50.0759647130041259  6.5681575513570118  1.3555737587404535
 48.7033257691180381  4.2536114361200728  0.3929389706337312
 47.3313462530703077  1.9355304394938624  2.2904808327930568
 74.4582001358293581 25.4609899291866526 -0.0861366918154328
 73.0982837939699834 23.1191181630854281 -1.0142787802632307
 71.7493875553834357 20.7599560299380279  0.9054886755290502
 70.4202782645490686 18.3872783332915617 -0.0066061778872268
 69.1088846257686527 16.0088560279370853 -0.9004056047684521
 56.9885355684094250 13.6312045420121155 -1.4687937488233496
 55.5844302226796358 11.2203541577790613  2.3412490709324323
 54.1959266262622847  8.8812064339330981  1.2509816898555506
 52.8208245626148738  6.5627180589240135  0.2915786625843300
 51.4490697345637926  4.2458216755519658  2.1964580283765525
 50.0775358854079329  1.9280358749112876  1.2699781925581757
 77.1982312100537058 25.4609899927289973 -1.0877721145702910
 75.8250433032100233 23.1339304107001489  0.8480835591267095
 74.4651689663371315 20.7914187166596278 -0.0530742210355288
 73.1278350029694195 18.4305006214124916 -0.9485037546912086
 71.8140589990931488 16.0570010408314836  1.0086339552584931
 59.7062771979734492 13.6014143143600972  0.8881345117584927
 58.3746688787521038 11.2166446476364552  0.4450491761688263
 56.9758457208886000  8.8791992964290465 -0.0157934012933328
 55.5858424755818916  6.5746320639927207  1.9994298957453684
 54.2094859021457935  4.2540984640118209  1.1121800104334953
 52.8341450568323268  1.9301344369496167  0.2115790950098431
 79.9492356024289421 25.4609900636141440  0.7144446790240607
 78.5712329270368173 23.1414250834083610 -0.1724190598820354
 77.1970227113272216 20.8158494382924637 -1.0494583838414637
 75.8420588707056140 18.4722329111293213  0.9221902740972112
 74.5236501543492125 16.1080882429368017  0.0560189667188440
 62.3997043227844372 13.5774568005110368  0.0582745393639443
 61.1060130227672431 11.2112911966492206 -0.6735284189791740
 59.7576117397860855  8.8748188906570835  1.5481013246997628
 58.3625187437429176  6.5720495819501270  0.8163423207451805
 56.9738599679182443  4.2594630727831708 -0.0083909932999949
 55.5914563967141007  1.9344942517417749  1.9659604459422535
 82.7069840552045434 25.4609900919863961 -0.3568654908938854
 81.3278420934989867 23.1393266117298886 -1.2308181280507997
 22.9575040387683096 20.8236383182762914  0.7964465635763673
 21.5843989303843351 18.5013023503374470 -0.0444378198838778
 20.2499263902690387 16.1543598345797790 -0.8763234209646396
 65.1026265188066873 13.5940872561580353 -0.8435177967784191
 63.8135826024028248 11.2230977240810379  1.1912532052380962
 62.5000983899441920  8.8727086554171208  0.4321321304604069
 61.1321699241458276  6.5549976417092362 -0.3273414955134166
 59.7369549204747798  4.2504909601782419  1.7092642587814997
 58.3523451842837133  1.9335438777802514  0.8643532158014583
 28.4808986171901211 25.4609890729815866 -1.4045830341153156
 27.0998908050139242 23.1349658754636849  0.5659490847421109
 25.7179201793074554 20.8153615968076906 -0.2878314023116049
 24.3292587778624174 18.5067419322719076 -1.1084328376988983
 22.9660965098788452 16.1836590572212700  0.9538899656206703
 67.8092742885519613 13.6318114337866465  1.0732355037556771
 66.5215325247275189 11.2582543553055103  0.2309885662347794
 65.2221887327765728  8.8941601923235662 -0.5906599084188430
 63.8791804235199763  6.5538876894204998  1.4383600539585595
  5.5152432219421135  4.2381067897028437  0.6565717708641816
  4.1285901991036331  1.9272551263351687 -0.1886524732457071
 31.2390320509933410 25.4609891171686868  0.3440071158460629
 29.8607795919425669 23.1359162684540465 -0.5356581387653990
 28.4822942740111316 20.8099970204974625 -1.4084023674637614
 27.0942766721590758 18.4948280200912301  0.5994184781048367
 25.7043607087349564 16.1882536334260791 -0.1490298323272596
 70.5201825722942601 13.6803732825893505  0.1367175339119959
 69.2326998354173924 11.3054576574163494 -0.7229981300244908
 10.9498764674865949  8.9346284391582493  1.3090136207838525
  9.6266478012127248  6.5769576567107926  0.4574045964986724
  8.2683486684373317  4.2411830908516324 -0.3973978930582052
  6.8874050438489327  1.9228153399043557  1.5819350023250029
 34.0000174179924883 25.4609891373083777 -0.7378253530798472
 32.6222872380022153 23.1422039873836987 -1.6310496802898347
 31.2453892363571875 20.8189692362300534  0.3092528762330045
 29.8709528774434467 18.4974105681174130 -0.5836690799606821
 16.2460455853184769 13.7334091747859581 -0.7644355944999380
 14.9576340584741327 11.3577159320236660  1.2146618444891071
 13.6630619539025950  8.9834478042723624  0.3461755766665875
 12.3486834294249821  6.6152665550803071 -0.5296705214179165
 11.0048890838906779  4.2620223104965769  1.4305423404931474
  9.6402253832598248  1.9280389726998683  0.5433284556921507
 36.7588107660847712 25.4609891689999230 -1.7942023483825684
 35.3811020928135065 23.1466438899490896  0.1395377723941408
 18.9538849079914158 13.7853070896462562  1.1283777248739797
 17.6697073104015203 11.4095329722025287  0.2756637387353230
 16.3738797206831634  9.0331779555174379 -0.5965474051327853
 15.0598624661312996  6.6585253169692136  1.3555607205070057
 13.7281840153517738  4.2923033038455198  0.4524467791067528
 12.3773398834914836  1.9415404068450612 -0.4580428620279963
 21.6602870507240191 13.8281858074539095  0.1728206480060011
 20.3793748152774654 11.4539352062344690 -0.6514761944653391
 19.0790959140755056  9.0768585774283839  1.3259635358330943
 17.7646585234444316  6.6982763956214733  0.4283238052461759
 24.3675107065901067 13.8490839758745619 -0.7995987842818999
 23.0807645427732417 11.4795302248819482  1.2877487469411557
