Nb
 1.0000000000000000
    56.9852626216473368    0.0000010415064528   -0.0423858400735107
    28.4936971567969195   25.8525190928012343   -1.4423971723246785
    -0.0021306941731196    0.0000000219721493    2.8424096005155990
 Nb 
 231
Cartesian
 28.4670994956567931 16.2006011947497832 -1.3472620554157659
 34.0014793776680264 20.8283769137997510 -0.7586182049275432
 32.6298008678611922 18.5126864847253678  1.1543927181235327
 31.2549599315008066 16.2054048701656086  0.2190675896153845
 39.4995979320486654 25.4609891570047715  0.0362446454093278
 38.1283427297409219 23.1422164511221027 -0.8855310627426034
 36.7570994665758946 20.8282935766926158 -1.8229868336035815
 35.3842194999966537 18.5146319945430164  0.0591103925273449
 34.0051844041783795 16.1955968119276896 -0.9431676497040976
 16.4366240393250429  4.3182210957027758  2.3503190180599312
 15.0933682468835091  1.9553072844519603  1.4220478202479498
 42.2319526496646418 25.4609893010768928 -0.9540996757297242
 40.8682639164564989 23.1303830324796280 -1.8939511182838160
 39.4962197354158988 20.8112416594326106 -0.0030306799511815
 38.1195204243347092 18.4967234449553111 -0.9752161130530065
 36.7305739407255984 16.1790910117492253 -1.9840002404543915
 21.7870138427841660  9.1012022137511526  0.4334365870521396
 20.4635868032794654  6.7226339758504103  2.3701788090966938
 19.1329366094798843  4.3439851173216155  1.4387537687350014
 17.7949786337164504  1.9706485416788793  0.4927142368347455
 44.9433463631405061 25.4609894048362086 -1.9036502488911651
 43.5870653154290153 23.1141523463847562 -0.0203494448877083
 42.2220084436537846 20.7824374209996883 -0.9870279782590292
 40.8431293724898410 18.4610783640151190 -1.9680517449332011
 39.4446285802137311 16.1423676862773249 -0.1316664851546277
 27.0884274036234949 13.8498200999144707  1.0016790732062597
 25.7854200104716789 11.4711923760957184  0.4490113006994059
 24.4785775844352926  9.1036843114629900  2.4345510272306252
 23.1512962679285756  6.7328919224122545  1.5110507909242039
 21.8173614375999492  4.3576807768996684  0.5631864064155880
 20.4807305196410034  1.9809179783556292 -0.3990449214763120
 47.6331747266737366 25.4609895304042837  0.0289693225609382
 46.2886756851758250 23.0988112900505627 -0.9496830129698163
 44.9324517108118897 20.7512386274058542 -1.9344879304762230
 43.5556138649026323 18.4181997672313535 -0.0863054144112623
 42.1582567642627737 16.0946568375022210 -1.0958512773316860
 29.8563695369975228 13.8936288218317046 -0.7483675453882208
 28.5064776319269768 11.4380894174123622  2.7808185737105999
 27.1613834396206144  9.0719299711277213  1.6772272525255685
 25.8295891819339332  6.7137078570814017  0.6938773828176948
 24.4941200960433854  4.3521634246807830 -0.2794180644947510
 23.1550787861276532  1.9825419849312600  1.5841589663579807
 50.3120595421228103 25.4609896548570021 -0.8453566951940217
 48.9744275415177555 23.0885420548731339 -1.8414421296518459
 47.6266335684021982 20.7254748030789422 -0.0036435319306111
 46.2617774646001649 18.3773949951095652 -1.0167083534945656
 44.8700078750896054 16.0446438930641300 -2.0391061567849511
 32.6013065740078858 13.8588599720493821  0.7819262345889625
 31.2090893030865466 11.4485119773361195  2.1924510519087907
 29.8449594142649488  9.0556068312299267  0.9972721501112036
 28.5047568655203385  6.6909808880789008 -0.0841169115108336
 27.1678780322355067  4.3345283219063138  1.7443244374461127
 25.8305307573874394  1.9754536551093791  0.7472815677102043
 52.9869313648583216 25.4609897472291031 -1.6932744171041911
 51.6487757888296315 23.0869183329679686  0.1417618412706077
 50.3110583235113538 20.7117793569730324 -0.8792107596455179
 48.9594143093070500 18.3468260073370857 -1.9146281068732380
 47.5767097285902381 15.9993610249596028 -0.1177335883331973
 35.3197188033734761 13.8495750535947817 -0.2179928263715088
 33.9053932957861051 11.4873318883255013  1.4488797208121014
 32.5302755177774898  9.0922044571910821  0.2528196222906783
 31.1834895257370697  6.7020570452551764  1.9861093823968781
 29.8467535080700870  4.3300418951898143  0.9363873851681929
 28.5096737784675831  1.9689864626910965 -0.0792532386861723
 55.6624871957290779 25.4609897419119129  0.3151751907611227
 54.3242277247584653 23.0940068416650597 -0.6951154665253416
 52.9878169219934279 20.7172970476027558 -1.7218150178829776
 51.6449930554494330 18.3365683552419156  0.0686537279746982
 50.2807104879614712 15.9682578185541377 -1.0089607872352926
 38.0289534316655207 13.8185910219937664 -1.1765762601869316
 36.6051749743702075 11.4791765664758216  0.5725118966605065
 35.2146222323197051  9.1155206724230364  2.2898090338272441
 33.8614373151688071  6.7317113233243688  1.1868999987574864
 32.5250093682147394  4.3463830478000114  0.1253951536295458
 31.1876609831937159  1.9723225721047157  1.9391614317161194
 58.3432295615862557 25.4609895878410697 -0.5141547104546513
 57.0033707247000692 23.1004738355163788 -1.5216501980411241
 55.6615748066570362 20.7349322350323035  0.3019277469489351
 54.3232858786810908 18.3557527842582644 -0.7485192071546118
 52.9744048536203991 15.9657761109802845 -1.8502555577302060
 40.7404952081302909 13.7731940150318870 -2.1270522172464519
 39.3124235703356035 11.4461219053703260  2.5020532254893433
 37.9104298881725725  9.1037369814239408  1.4278909890740825
 36.5432670050090138  6.7397258794309991  0.3552105389725072
 35.1985949735339290  4.3620009311447596  2.1437200011397035
 33.8644665836903087  1.9815746629598245  1.1124684681608421
 61.0224158803570305 25.4609894247527997 -1.3428337744816690
 59.6813579084197912 23.0971372884598765  0.4967645206145928
 58.3404502601291313 20.7394181306347818 -0.5060090505655369
 56.9984535145950488 18.3784794169916985 -1.5265125681768081
 55.6550799569193586 15.9975307796679314  0.2348314659337606
 43.4520201457786825 13.7214721497134953 -0.2288574995856947
 42.0251079324529897 11.3994107690447617  1.5732740836250518
 40.6143952358216893  9.0697295078348947  0.5288183044469503
 39.2305248466010923  6.7236782222946525  2.3289680244377089
 37.8765984769688373  4.3606312638308928  1.2951879388757055
 36.5382786513480440  1.9859478604640668  0.2737419813527520
 63.6950296656950314 25.4609894149116549  0.6658478859045083
 62.3581634808221636 23.0878849776312656 -0.3299284754615244
 61.0187059715839339 20.7230764618795895 -1.3170012798221022
 59.6771858583652346 18.3674024998273353  0.5437141825298599
 58.3386558874542018 16.0138525891593986 -0.4451203713517775
 46.1658670242477740 13.6693484681060102 -1.1652884479074279
 44.7382820471927971 11.3469503284614674  0.6356982679245070
 43.3202597218363294  9.0234256351316997  2.4469274683744549
 41.9282106266146712  6.6910045236115865  1.4263569327465113
 40.5622361348441132  4.3438883126829966  0.4149193680900328
 39.2130460370599039  1.9816049748697497  2.2537591541077608
 66.3685826634119707 25.4609895248037645 -0.1838310998900073
 65.0319755612227937 23.0835119540703460 -1.1686550773883899
 63.6922916427174428 20.7074586994499228  0.7013232911217694
 62.3551337547354763 18.3377479939715187 -0.2554958107502180
 61.0239717952568270 15.9772544189613388 -1.1895735656026687
 48.8780195377744349 13.6232567023908988 -2.0907534239743488
 47.4480161957350575 11.2945204593073019  2.5339886436293533
 46.0305328544108363  8.9724375174123274  1.5021796893576964
 44.6341879407795403  6.6490767084565370  0.4936794874897776
 43.2575615155150075  4.3167579570646550  2.3431610282354143
 41.9005266341800038  1.9701285513000946  1.3594165202590074
 69.0485846627655064 25.4609896767791888 -1.0606574509914659
 67.7067430124735949 23.0878551776464640  0.8113619643020891
 66.3702952692660944 20.7088287680015952 -0.1472091086559661
 65.0369636451180497 18.3297339447417080 -1.0871860721997120
 63.7083189050988281 15.9539390964915970  0.8474134293524115
 51.5827109857512340 13.5936233563025883 -0.1510891645864162
 50.1557485627770134 11.2490972078129587  1.5844617811338952
 48.7419920312852568  8.9240822487234581  0.5360216742779070
 47.3465081557995049  6.6059898892499991  2.3735961855318406
 45.9693235327666159  4.2852310035614156  1.3940040564005505
 44.6043498213636553  1.9543370276887839  0.4284125286821180
 71.7407532804914609 25.4609898292638555  0.8701342592838536
 70.3942236660145539 23.0993318618121819 -0.0829807480711891
 69.0559330533493636 20.7255720023495691 -1.0274779167104453
 67.7242217023579514 18.3457820551031432  0.8865708527490540
 66.4041267963958575 15.9657232637102879 -0.0145059049895300
 54.2791158945090899 13.5982682954499392 -0.9933860086665245
 52.8613268963119012 11.2224925625502525  0.6227456006518175
 51.4558145309373103  8.8897765018816663  2.3789740089564511
 50.0711349335183868  6.5725531091014515  1.3757310786383732
 48.6970496295730513  4.2578737553030459  0.4074228455273098
 47.3255945788675518  1.9385554322594964  2.3001679942359705
 74.4548213053423353 25.4609899516636737 -0.0809882177649984
 73.0980468682676019 23.1151236309574664 -1.0139847648309619
 71.7512584799821695 20.7527026162856174  0.9007636466437976
 70.4219075543154531 18.3784559833910066 -0.0160404729950280
 69.1080921639173908 15.9997309562566024 -0.9135790754810119
 57.0023048275091639 13.6313706852504790 -1.5039831095280995
 55.5799931632569795 11.2196403093646762  2.4016877297905013
 54.1876897533319521  8.8800127135382549  1.2995889463982744
 52.8112548457931084  6.5613172322780668  0.3267053715616183
 51.4390532841596766  4.2453690621034887  2.2216327009720680
 50.0676010822243427  1.9286442460266437  1.2887423605057908
 77.1895452434308140 25.4609900868053636 -1.0735901539173911
 75.8192915975448614 23.1309055238245627  0.8577707266097742
 74.4630204958992010 20.7842297619560590 -0.0483933237382955
 73.1278848866765685 18.4203839381228995 -0.9487179733247914
 71.8139566406086942 16.0460349888842408  1.0045299555168412
 59.7027864871175282 13.6209468202959538  0.7500661830462764
 58.3479366892360787 11.1758342898667546  0.6516259249552051
 56.9586663570359590  8.8688596724635129  0.0527450239301902
 55.5727039623415493  6.5687166090704840  2.0487053563897204
 54.1976016289223992  4.2500911760028153  1.1475901360301610
 52.8224960046284409  1.9282611068067299  0.2383889556755852
 79.9378528101558601 25.4609902224294871  0.7365813034489586
 78.5612980197676762 23.1408169742497627 -0.1536548124241442
 77.1907465074061889 20.8115872418954062 -1.0349744200998903
 75.8402051006777214 18.4634709269430175  0.9311987895184221
 74.5242297951558328 16.0970231963002561  0.0597821808720809
 62.3990899458442172 13.5821276455124931  0.0064853173850577
 61.0950037111232973 11.2106002509317868 -0.6604729018938728
 59.7465264521412891  8.8640555636050493  1.6190745718084611
 58.3499755589999936  6.5660381498912352  0.8708556891841955
 56.9626820870505952  4.2549807409796996  0.0324639977496036
 55.5805857872614411  1.9319185852399243  1.9978108518261031
 82.6957056728435731 25.4609902520197942 -0.3290462467297510
 81.3161928812264705 23.1412003409989673 -1.2040080605961463
 22.9474873865026545 20.8240912339164481  0.8216215504572111
 21.5795691373397780 18.4969068802763950 -0.0242802050612505
 20.2504263815602812 16.1453775036664524 -0.8639898600278202
 65.0988718844065772 13.5902835978096217 -0.8698847817010233
 63.8112846973573440 11.2198851522103613  1.1820194169208502
 62.4967503534074638  8.8738630669344616  0.4568426591990591
 61.1234977536475483  6.5567733610460657 -0.2880068654221548
 59.7278591109082626  4.2498238708578553  1.7470969871385360
 58.3429833885619331  1.9319956181746027  0.8967411989122643
 28.4710460204995854 25.4609891633662997 -1.3745857903187533
 27.0890200438996942 23.1375418748653701  0.5977998147018841
 25.7060355732674850 20.8193692886532808 -0.2524206103796320
 24.3196888187404596 18.5081430324759744 -1.0733052289616873
 22.9642488092334247 16.1796834660046507  0.9789629733235620
 67.8061205072074387 13.6233385810072161  1.0596558318955860
 66.5205193491241857 11.2508693695710544  0.2234357659321634
 65.2221396804962126  8.8903692643996575 -0.5839887799098489
 63.8757853497922881  6.5548279442676778  1.4591213568630967
  5.5077827366786574  4.2410818291400272  0.6837785331290503
  4.1206318549042935  1.9281476355401248 -0.1604323555303831
 31.2305866974502173 25.4609891006726485  0.3724248553239178
 29.8514176554009616 23.1374645829773726 -0.5032697918395252
 28.4711160917238573 20.8144796285661009 -1.3675464163241189
 27.0811375978576905 18.5007439317390769  0.6486956798864246
 25.6961236192190050 16.1894476388424131 -0.1004204797582327
 70.5188047964693112 13.6700498092228759  0.1308764944731498
 69.2320611708899776 11.2962664961579637 -0.7270403441496530
 10.9509317152677941  8.9270917851513545  1.3107310241591530
  9.6258235566834749  6.5727357823010983  0.4671811462995201
  8.2634026562242902  4.2411654042069928 -0.3805897473308825
  6.8801942359122110  1.9241084360875114  1.6029965915914595
 33.9924318128088956 25.4609890059174582 -0.7140705297523813
 32.6143288006273551 23.1413112417518114 -1.6028292552498473
 31.2362931512423110 20.8196361925594360  0.3470865121969572
 29.8584090583042787 18.5034222654518494 -0.5291534745497140
 16.2467162687669351 13.7225092952818191 -0.7643135087029250
 14.9583235307668545 11.3479874486501124  1.2135401857457946
 13.6645599519440850  8.9748027129334425  0.3465462634662853
 12.3494324493067023  6.6083810955151874 -0.5256543359321924
 11.0025227997419943  4.2582176728625800  1.4393665995516995
  9.6346457585785714  1.9272426745524600  0.5568661179838043
 36.7518987752561870 25.4609890084231516 -1.7769213245003193
 35.3738911849755340 23.1453504834586461  0.1605995378076386
 18.9564504851612092 13.7749392633354137  1.1339769009615450
 17.6721704216780644 11.4001112235437265  0.2771092427555487
 16.3763111119312477  9.0248157793323891 -0.5967086084422230
 15.0619169701124971  6.6512598837901633  1.3560920252050908
 13.7283114606476353  4.2870221143101128  0.4553693675213933
 12.3745668918467118  1.9390763316138522 -0.4515538717113436
 21.6641829673288875 13.8203626315145343  0.1844501381169313
 20.3843230641884965 11.4462031269197375 -0.6483557477815738
 19.0830130008539882  9.0700988156605380  1.3246639223233889
 17.7680805839045561  6.6920648009151424  0.4256890702807702
 24.3697613698442836 13.8469675254321984 -0.7772655637110434
 23.0890146998379073 11.4758367187479884  1.2913084544757136
