Nb
 1.0000000000000000
    56.9852626216473368    0.0000010415064528   -0.0423858400735107
    28.4936971567969195   25.8525190928012343   -1.4423971723246785
    -0.0021306941731196    0.0000000219721493    2.8424096005155990
 Nb 
 231
Cartesian
 28.4495048344165085 16.2076745922332357 -1.2441660233888678
 33.9959515304136204 20.8216354939888362 -0.7452588089805220
 32.6201681972250555 18.5039607228958047  1.1884610984581991
 31.2391512770089790 16.2051231811208574  0.3214584862872921
 39.4967194864597317 25.4609891120616361  0.0381386314925736
 38.1251343202052055 23.1411757570716041 -0.8823969567843087
 36.7538186348866276 20.8251628300391296 -1.8167775503776047
 35.3816972654369906 18.5096908229514057  0.0741719895105827
 34.0047118798269210 16.1909908439665990 -0.9074418247494929
 16.4374800906835077  4.3173102296475614  2.3499474967666667
 15.0932416252111921  1.9546674052315283  1.4219768472082335
 42.2306916854992878 25.4609892835690736 -0.9537224453065847
 40.8664834712007305 23.1307367317026937 -1.8928756501192519
 39.4949381370960211 20.8114639014329725 -0.0008291137077294
 38.1202507431704518 18.4967971460518363 -0.9705410594788488
 36.7343465707994667 16.1793654031737901 -1.9760031822613124
 21.7877535021447812  9.1031826458219545  0.4272642524979484
 20.4644840855593522  6.7234520967226343  2.3663302740274594
 19.1344727559369048  4.3440020048027952  1.4367278530439003
 17.7962970964358753  1.9703384856346140  0.4916424619029144
 44.9438688727272506 25.4609894190722734 -1.9042236531796708
 43.5869386895270310 23.1147922293610968 -0.0204204209825691
 42.2220151431421442 20.7836348832934412 -0.9864289822058742
 40.8444261916519622 18.4626795334770826 -1.9666356959931883
 39.4480188948008035 16.1443796107857693 -0.1297668115244253
 27.0973596895793172 13.8579898232084933  1.0571866256246407
 25.7921017804214969 11.4831124274854073  0.4232838140617828
 24.4800765713838651  9.1119446650367166  2.4158799658640229
 23.1529967791318683  6.7374822447745517  1.5011899204413079
 21.8195613676591833  4.3597017343731501  0.5580475605510309
 20.4831484595617610  1.9814022828802038 -0.4018106994735167
 47.6352174790305938 25.4609895759733078  0.0272694016403740
 46.2899941309009577 23.0991213988459627 -0.9507547839233752
 44.9333077863531969 20.7521495179685154 -1.9348594442361453
 43.5567247155398363 18.4195820600270821 -0.0858547714428368
 42.1600465284362045 16.0961578836506796 -1.0948777970700918
 29.8491075916741941 13.9100972118913599 -0.3717418001555076
 28.4918315888367495 11.4409663209698795  2.5895580436778358
 27.1645442489603290  9.0843577523492236  1.6261842710174077
 25.8335058330983607  6.7261325829065868  0.6742239761962060
 24.4971109517789074  4.3590050944316303 -0.2885694862607235
 23.1577381848269397  1.9848870213199683  1.5791945780558565
 50.3148351882707345 25.4609897401157106 -0.8487515775336838
 48.9768454388552428 23.0880578762685289 -1.8442078753225930
 47.6281696963081416 20.7254579759679842 -0.0056694006672402
 46.2627405886810905 18.3779203239490663 -1.0175966766422369
 44.8708740934418060 16.0453777344978619 -2.0388082799256413
 32.6063253181866060 13.8531793122271303  0.8269032753599311
 31.1890515503136356 11.4380166810890795  1.9577188590608905
 29.8506418506046884  9.0520031180126370  0.8883741410836089
 28.5110385248965130  6.6979710945467037 -0.1209915708170947
 27.1709326956668846  4.3428524494855854  1.7310455879715863
 25.8321058418942400  1.9797976611380557  0.7409184414037439
 52.9888121140344808 25.4609898552497462 -1.6979677447178796
 51.6514351057167573 23.0845735103376519  0.1367975410343013
 50.3132581586624426 20.7097585510126905 -0.8843494515740999
 48.9603116493476520 18.3460079521072785 -1.9184764531238836
 47.5772599238646876 15.9993075256582049 -0.1193253566909377
 35.3264587398873928 13.8476147637537501 -0.2193941058767126
 33.9078685145098646 11.4751999851221811  1.4037895818126502
 32.5349833686859995  9.0757855913686001  0.1851916942972404
 31.1915546973264242  6.6926816280599111  1.9461578416851568
 29.8498996842229261  4.3296388577750653  0.9198241879511737
 28.5097429636802744  1.9713226334220395 -0.0860587234187690
 55.6623439689710082 25.4609898348328443  0.3104620358068509
 54.3258027232507246 23.0896630842632646 -0.7014784715520459
 52.9908075710989337 20.7104556836316611 -1.7309661536450229
 51.6466934817023073 18.3319782491650614  0.0587933713544237
 50.2814504430383948 15.9662774204310640 -1.0151325928953121
 38.0331098224949713 13.8197287529400885 -1.1781757302768898
 36.6056739001469396 11.4765468144737053  0.5590541312401963
 35.2157400657643933  9.1065089728989186  2.2617400331013195
 33.8671255245994445  6.7176626673792157  1.1618333511346481
 32.5290763282824997  4.3371565742964071  0.1101895650313545
 31.1879280205434810  1.9697030605622796  1.9318584824433842
 58.3420747972471787 25.4609896367733164 -0.5187059886333812
 57.0034398689980932 23.0981378289644645 -1.5284555910573463
 55.6646292483776861 20.7266084383832663  0.2886492391016736
 54.3272022048343644 18.3433285023771795 -0.7681716967837793
 52.9759039652918844 15.9575160085970023 -1.8689250653668708
 40.7420960142152637 13.7742802765456194 -2.1269505328787108
 39.3118942452414686 11.4461906107015121  2.4982810809575500
 37.9096762645056913  9.1019814105146839  1.4178349906076864
 36.5457528458343646  6.7343390113627200  0.3417038214291990
 35.2027632415153704  4.3543463782946796  2.1324024698644251
 33.8666759840476672  1.9768562388058375  1.1049601208396913
 61.0225538588149305 25.4609894332959605 -1.3481861710088043
 59.6816249470149529 23.0997568487512659  0.4894615792882763
 58.3435963262184956 20.7398213208093161 -0.5225720734169854
 57.0047346822430043 18.3714897517874007 -1.5633862384108326
 55.6582405135502185 15.9851037667929372  0.1837918961267793
 43.4526668709194368 13.7220724447390658 -0.2281336795043611
 42.0248729493396525 11.3999698029825467  1.5727677871913472
 40.6140135328889684  9.0702409713046954  0.5257031713811067
 39.2314152823937192  6.7229813576023671  2.3233589862042625
 37.8795949886482646  4.3583483970662433  1.2884867668694602
 36.5417661683349806  1.9832971501588115  0.2675463705712806
 63.6975105981602923 25.4609894308050748  0.6601361387325723
 62.3603729068865889 23.0926034184448312 -0.3374368637959939
 61.0227729744405210 20.7323029556242275 -1.3322069656054685
 59.6852510624735899 18.3767781861700605  0.5037627958722755
 58.3443382255343792 16.0174574741128559 -0.5540159640672963
 46.1665161354399771 13.6696890415105958 -1.1649112171790215
 44.7390459982682884 11.3477846503871405  0.6365575882388332
 43.3208322191722388  9.0246701106272624  2.4467564158917612
 41.9290601265965535  6.6919896665438587  1.4246771733538548
 40.5641311776581830  4.3440442606064682  0.4119901288438378
 39.2161297019755253  1.9810925511817676  2.2500450583667497
 66.3721118918236215 25.4609895583758359 -0.1882335626254309
 65.0354631100382079 23.0861627243238949 -1.1748507258198411
 63.6964599947993477 20.7151132891855667  0.6900056175533816
 62.3608221268489160 18.3517967132042052 -0.2805629391949097
 61.0286799324757681 15.9936738144775479 -1.2572029396540745
 48.8797979708625903 13.6231035235616140 -2.0920163821580182
 47.4506062251723009 11.2959256746663268  2.5353137611718393
 46.0324243967784597  8.9744335754362297  1.5035166202930352
 44.6352137741296602  6.6509109392316432  0.4940090989432998
 43.2585016690785480  4.3179848144267909  2.3424120342103727
 41.9021763703938035  1.9705765376502578  1.3578105633256461
 69.0511868348147857 25.4609896980445463 -1.0630685211280650
 67.7098267003797076 23.0883676564683569  0.8076478497774841
 66.3732918540852666 20.7111116851445374 -0.1539103659851511
 65.0394495730340765 18.3351208897136324 -1.1006931027466744
 63.7094367622781306 15.9629508251324914  0.8193434650952924
 51.5872566118253459 13.5911126430515292 -0.1577370107388859
 50.1616977623864528 11.2504570150869725  1.5860761357495974
 48.7456357137589578  8.9266134243988233  0.5393336661722047
 47.3476354748635373  6.6079829513869699  2.3755939939415320
 45.9691856615418644  4.2866934013403224  1.3947507807944435
 44.6042065134867727  1.9551232052343228  0.4282546788529422
 71.7414355887069348 25.4609898303905204  0.8692807594095422
 70.3958734147979470 23.0988838949621247 -0.0845867128588795
 69.0578281033931916 20.7254160819396205 -1.0304071872563423
 67.7251121108495511 18.3464789400842783  0.8809616904047417
 66.4033729315181205 15.9674788133064158 -0.0245622656477060
 54.2857983591116877 13.5863484594436041 -1.0191100787503640
 52.8707112163298731 11.2204623075262422  0.6287570788749660
 51.4596180052619729  8.8905914231409788  2.3902780973283644
 50.0713551172188431  6.5728630726489907  1.3819115589720961
 48.6953244828448746  4.2582102629582907  0.4103184699278936
 47.3235000355025122  1.9389722364443933  2.3015575182844916
 74.4533630547733196 25.4609899428273891 -0.0804887675196619
 73.0979035641802568 23.1143374476730941 -1.0141426152959139
 71.7521986219921359 20.7514757600376853  0.9000146430296349
 70.4227569974868004 18.3774708312468036 -0.0177202770543915
 69.1077102732746056 15.9992194523877487 -0.9166943402331013
 56.9876606986208500 13.6284946523530532 -1.6952315242166822
 55.5889255328813192 11.2114704691072919  2.4571955986829455
 54.1861980539064447  8.8757051640325866  1.3412059934981333
 52.8075317512343148  6.5567221344267308  0.3444903944823993
 51.4349955663944911  4.2423140209405910  2.2290290194670419
 50.0638257429572846  1.9276140001627216  1.2924864694150460
 77.1862033590847005 25.4609900747663787 -1.0712896891561665
 75.8171970504629513 23.1304886957226827  0.8591602534117058
 74.4628826155051371 20.7827673483300757 -0.0476466050518371
 73.1289106703678300 18.4185497013457216 -0.9483883838534933
 71.8145290088840227 16.0447905035829272  1.0043588338046843
 59.6827490003639269 13.6314435900802877  0.5153329326202684
 58.3406738608326378 11.1593608425939408  1.0282440339369188
 56.9410717908560642  8.8617853516837766  0.1558387783025819
 55.5622117567455618  6.5596346583404630  2.0851799748589706
 54.1913070876235636  4.2434298656555214  1.1622792186957940
 52.8183125046439343  1.9251529993379917  0.2453203522915982
 79.9339685249858007 25.4609902203418841  0.7411658492540238
 78.5575226832384601 23.1418472127374599 -0.1499107057232968
 77.1890213761786583 20.8112507193247680 -1.0320788182561256
 75.8413323954639793 18.4614778445690462  0.9331965609776800
 74.5261212323013780 16.0950271321088749  0.0611190538230022
 62.4015645267569639 13.5942593382855321 -0.0386070584789209
 61.1000213589338230 11.2162803719648174 -0.6154983740401057
 59.7307184901842803  8.8643359320066502  1.7214631194701144
 58.3370092607018904  6.5646966444389392  0.9203040896087472
 56.9565735746270647  4.2506269022001728  0.0537646849404256
 55.5775777070364043  1.9289445346895300  2.0075681801922673
 82.6930387937251083 25.4609902493178097 -0.3224582464315092
 81.3120093771363202 23.1443084669553549 -1.1970766528597530
 22.9434296708886514 20.8271463030931052  0.8290178333145848
 21.5797893685254358 18.4965968981614175 -0.0180998167313017
 20.2540700262245394 16.1428463126170421 -0.8606779915564621
 65.0993701229752020 13.5929133058993816 -0.8833432559690553
 63.8180239458369627 11.2218453587228488  1.1806171721493639
 62.4962779509625435  8.8784690140588687  0.4925669352048530
 61.1138653813366162  6.5654989588114745 -0.2539393826770765
 59.7222333142684647  4.2532009291993162  1.7678868484360282
 58.3406078272679736  1.9316502495363301  0.9073931135001756
 28.4694908793857877 25.4609891286508869 -1.3670965304056197
 27.0860119626122398 23.1405158791249619  0.6075572021092837
 25.6997409909291932 20.8260307162122409 -0.2377314989626516
 24.3159657847793511 18.5127382406607737 -1.0555203072266126
 22.9680523300139576 16.1788685606880698  0.9902668146253601
 67.8055907451274464 13.6232698423688809  1.0558834339953544
 66.5246752595761706 11.2497316560155429  0.2218359366862894
 65.2259121637734580  8.8900949864243746 -0.5759922514666832
 63.8732633254977316  6.5597690759648852  1.4741824021753980
  5.5022550844338678  4.2478230853340904  0.6971376306408379
  4.1181273527219568  1.9307952594153845 -0.1511127090697725
 31.2292674667316952 25.4609890340684544  0.3797431317435477
 29.8490420477264280 23.1378097855972520 -0.4926177904995507
 28.4650075134142959 20.8188334027462609 -1.3462455148954509
 27.0706452460496223 18.5098260451858572  0.6851705636636198
 25.6946321308009189 16.1937552626297254 -0.0588034616597795
 70.5185695678294309 13.6694907759643414  0.1303700660299994
 69.2336616812460335 11.2951802722777099 -0.7269388314957946
 10.9543218294401292  8.9250799293285255  1.3126305181347471
  9.6265538660223040  6.5726620741408546  0.4718560034096264
  8.2601219458785717  4.2442960493990096 -0.3743806215750303
  6.8767030390300938  1.9271673995875302  1.6091964620611603
 33.9903716888207015 25.4609889328797507 -0.7079499774214510
 32.6118242176436937 23.1386634451740925 -1.5935095097240108
 31.2306671676590177 20.8162588936489996  0.3678766967869064
 29.8454424215501888 18.5047634214442986 -0.4797042279998845
 16.2474800247815878 13.7216749938145188 -0.7634542918989425
 14.9589700206172864 11.3473871807821549  1.2142638815440312
 13.6663495390386842  8.9733016980698750  0.3475196501275297
 12.3507291997544382  6.6067799413506174 -0.5242383519613564
 11.0012412268726703  4.2579953924031964  1.4415681131658797
  9.6314373923976753  1.9282832660044731  0.5600001877122321
 36.7486477310188135 25.4609889431585508 -1.7728945023469811
 35.3703998977404908 23.1422913672315147  0.1667994935583930
 18.9590403033357688 13.7735340775699093  1.1353018729124837
 17.6728192636917747 11.3997706674475481  0.2774863282181242
 16.3771771449516592  9.0240819392312499 -0.5964108259222083
 15.0630277218461224  6.6498775983173628  1.3565426334763857
 13.7283181424503127  4.2858246459706537  0.4559683533569529
 12.3727864563052901  1.9387225897555256 -0.4504784075621528
 21.6701319824072627 13.8190028302719803  0.1860641184231685
 20.3861010943333376 11.4463563309086762 -0.6496190190323275
 19.0835629696442091  9.0701523014057770  1.3230719729424536
 17.7690436227174757  6.6915394800352930  0.4248006827789202
 24.3791455685886085 13.8489977863191775 -0.7712550242645366
 23.0935597301253459 11.4783475488073350  1.2846595978746191
