Nb
 1.0000000000000000
    56.9852626216473368    0.0000010415064528   -0.0423858400735107
    28.4936971567969195   25.8525190928012343   -1.4423971723246785
    -0.0021306941731196    0.0000000219721493    2.8424096005155990
 Nb 
 231
Cartesian
 28.4259157716111517 16.1924240995326194 -1.1191537475641680
 33.9707758417809345 20.8177080106886017 -0.6730319385466155
 32.5932138246022305 18.4967392582217052  1.2798068834513707
 31.2059123251448156 16.1908831751164897  0.4503990420893006
 39.4795827550670353 25.4609887057195863  0.0725563245280528
 38.1050425091723497 23.1444613647507857 -0.8386585032426830
 36.7329702074334321 20.8282696643024856 -1.7635415712668323
 35.3617402322008729 18.5115948384460474  0.1403206917019240
 33.9880411647059688 16.1924241226168384 -0.8224570137226666
 16.4412736895847402  4.3005368020988062  2.3403792631490057
 15.0926505316799950  1.9456439399558860  1.4236379539625978
 42.2240550092730231 25.4609895492587697 -0.9405376085587940
 40.8549996850484902 23.1380856974603724 -1.8694077304250527
 39.4816633979377940 20.8228820637936032  0.0313986819890183
 38.1089600163218734 18.5096169456215023 -0.9305974961574304
 36.7285889568404187 16.1916861647895303 -1.9314058234962890
 21.7899893978394914  9.0890931937566943  0.3821076214784118
 20.4733373014366471  6.7091001299501434  2.3275177889581657
 19.1460603163273433  4.3312932037143019  1.4066020761022644
 17.8064756534978876  1.9624329857941250  0.4714723292474678
 44.9492182122205861 25.4609894461203581 -1.9134109977868448
 43.5863475316718905 23.1238154817124162 -0.0187593021119697
 42.2172800469458238 20.8001132918337923 -0.9751466347083337
 40.8393663813488033 18.4834020251281359 -1.9477281013075645
 39.4467736941022409 16.1661967503457227 -0.1069555654073673
 27.0817091456190013 13.8553276448335705  1.0855890758755018
 25.7926355144835497 11.4876543428642730  0.3401788715491854
 24.4885335585357566  9.1137094580541209  2.3390232234017150
 23.1675529018277153  6.7352522457246833  1.4394305705530399
 21.8375500319597364  4.3546098063501955  0.5081406491594578
 20.5017015264468121  1.9769104118485497 -0.4421074424934875
 47.6511042048156028 25.4609897155614107 -0.0033637919972561
 46.3001725945853124 23.1070267268666427 -0.9709249576237756
 44.9371014064300454 20.7689227506090681 -1.9444276953329653
 43.5565735921762993 18.4430364446852835 -0.0858046328437113
 42.1600952719480304 16.1224333670808022 -1.0878806559140430
 29.8111851856294408 13.8518053989576497 -0.0212380485653665
 28.4835759067106835 11.4692372630459154  2.3487422337083284
 27.1797883365031971  9.1060452452690743  1.5068243493292164
 25.8531067784188586  6.7387684380407169  0.5914345245352308
 24.5187519308116855  4.3641107271079012 -0.3547679354162210
 23.1804781212104771  1.9853910887730823  1.5229084253672101
 50.3370876859627856 25.4609897933734430 -0.8973922461537112
 48.9953987533545714 23.0925488122123355 -1.8845047430720687
 47.6397574979359320 20.7381662196823733 -0.0357952601317002
 46.2670248095985457 18.3992437845143613 -1.0363053894144485
 44.8713658469005949 16.0718981480806100 -2.0467710568253281
 32.6006429393572859 13.8518013784729828  0.9220378676057526
 31.2048524044916640 11.4402011066777405  1.8716030861254405
 29.8633833996138023  9.0682330753684237  0.7680960862785060
 28.5309223753439944  6.7115600386826326 -0.2120782153561111
 27.1919130738568775  4.3527727642838796  1.6570166883474766
 25.8542150025397568  1.9842418583029338  0.6759819802945293
 53.0119735512680776 25.4609888515461158 -1.7581491419554431
 51.6741759389434279 23.0840684448537417  0.0805112062548599
 50.3312464549186842 20.7148506181441334 -0.9342566871527838
 48.9691638075341160 18.3603606623283078 -1.9572893168161218
 47.5780869361822596 16.0222623324974762 -0.1434827103762312
 35.3301161952637202 13.8553276934219802 -0.1847905345457267
 33.9261120156443710 11.4692404830820607  1.3944665442077759
 32.5484423117847612  9.0682339882464689  0.1327027873764468
 31.2048486561199923  6.6922319642221648  1.8716039716119395
 29.8673605977970809  4.3327676075393722  0.8494478689991458
 28.5286746247991765  1.9746668554165796 -0.1513850471559236
 55.6827322327303165 25.4609888076565767  0.2468409985170816
 54.3479116656094234 23.0852196223219899 -0.7664152289685129
 53.0124475359577616 20.7053509036356189 -1.7971654973834459
 51.6612513879468764 18.3342070391853653 -0.0029669369966603
 50.2836872612019690 15.9803648954933095 -1.0602898277018056
 38.0384907374088925 13.8388977943857672 -1.1597157172723993
 36.6191943036024199 11.4876546114033165  0.5606194810823161
 35.2299082403726018  9.1060434467963880  2.2363840211240689
 33.8809026404173750  6.7115595130618768  1.1128767430811872
 32.5444655493706847  4.3327680364713208  0.0513505618781902
 31.2048476617003061  1.9687684701605657  1.8716039608355737
 58.3597305209480766 25.4609901654676598 -0.5798096367149994
 57.0223707856114146 23.0947940386599733 -1.5937822422610297
 55.6856110042783925 20.7166864399003501  0.2146190937451382
 54.3468048079845119 18.3306861884639432 -0.8509624139082732
 52.9843604804019748 15.9557516409122631 -1.9457840276735172
 40.7455638593742293 13.7994778575601451 -2.1183558873024593
 39.3201731902751987 11.4661081720598101  2.5000584946341680
 37.9211621293569863  9.1137095574392077  1.4041849873699741
 36.5587200440783704  6.7387695872020785  0.3093638605583068
 35.2177820470128893  4.3527730689780730  2.0861913613683294
 33.8831513072338311  1.9746668782349610  1.0521833406827181
 61.0394896995643279 25.4609900478359243 -1.4041865193249865
 59.6985447417210722 23.1006907955404515  0.4292066527989638
 58.3610593396111952 20.7366904987548430 -0.5929497528428815
 57.0246190883777118 18.3579014063082582 -1.6544752803948946
 55.6734796190582486 15.9634265699466482  0.0644254249387597
 43.4537865709232847 13.7493216916802741 -0.2288696028104432
 42.0291564857647941 11.4244188419276380  1.5727841213434273
 40.6218365976219005  9.0890938290268046  0.5186909462355741
 39.2421419060037024  6.7352525820551428  2.3037775693262277
 37.8930744494850273  4.3641106433782060  1.2555663647186845
 36.5576112457844147  1.9842418368841315  0.2248163082168169
 63.7143572718877493 25.4609890488653434  0.6115724471024158
 62.3768493211837907 23.0947940902055819 -0.3902140116711108
 61.0381606141756450 20.7366909077461941 -1.3910466439023434
 59.6985437613529157 18.3772344355902675  0.4292066348978703
 58.3570811381849026 16.0012216006586350 -0.6743021167841372
 46.1651899958064789 13.6959619122138641 -1.1754630762789982
 44.7403333510458907 11.3734983178580986  0.6338640771199512
 43.3253053154336598  9.0471975492179482  2.4442933624247960
 41.9363586318012054  6.7091002954873655  1.4156903010874693
 40.5742761303307660  4.3546100557156935  0.3926577404449816
 39.2292169544346621  1.9853914060183873  2.2202994600166743
 66.3872466760764866 25.4609893354625392 -0.2258470154068621
 65.0513082725765059 23.0852195658552333 -1.2175810348278877
 63.7114786251745571 20.7166867663330301  0.6437940857265736
 62.3746019072698985 18.3579008279563816 -0.3295211928458998
 61.0421393010671594 16.0012226401377120 -1.3096947326095179
 48.8763659380588820 13.6450419005263335 -2.1143830724850772
 47.4496054493259862 11.3201385680866249  2.5296802714380444
 46.0341574168899967  8.9975619765317045  1.5051721026831362
 44.6384983472756502  6.6702166318518046  0.4947064067378690
 43.2636350705041011  4.3312937227284456  2.3366059165758228
 41.9101245157461975  1.9769108862923452  1.3429057408968574
 69.0621325295522297 25.4609900085580989 -1.0866039114328072
 67.7229136535574980 23.0840687547714438  0.7779021442610738
 66.3867721969638893 20.7053508373948176 -0.1868309027826131
 65.0524145309985613 18.3306873705752693 -1.1330339444547701
 63.7236084943957692 15.9634246929060257  0.7939874260390085
 51.5832193422458829 13.6033542737030579 -0.1992480024809370
 50.1599599839175383 11.2699817849604020  1.5767569674099191
 48.7454277524819588  8.9470265442296508  0.5462816726753776
 47.3468186242537712  6.6264240080109129  2.3866152502253701
 45.9684217089260017  4.3005373289015036  1.4028287352631366
 44.6053503512330636  1.9624334452032846  0.4293259659277281
 71.7459853183332825 25.4609900544783372  0.8617772350385868
 70.4038213589300028 23.0925493073948864 -0.0994915263100324
 69.0679734765906375 20.7148508442677333 -1.0497396748379637
 67.7358385349396741 18.3342073963947740  0.8613800330022412
 66.4148592384164118 15.9557516938683843 -0.0382125603848587
 54.2863261351028612 13.5818040010582148 -1.1022181560765185
 52.8670329228728093 11.2305589612612700  0.6181166952149065
 51.4566185324084344  8.9032645789385292  2.4077661631382918
 50.0661564892789954  6.5860580682178886  1.4061291732425891
 48.6882432466491579  4.2693469672826385  0.4335476457553926
 47.3170447913173149  1.9456445492786607  2.3195699348587331
 74.4500019940907265 25.4609900041680284 -0.0705851597803984
 73.0990474990286572 23.1070271895673045 -1.0130713072535205
 71.7573318595485858 20.7381667255949296  0.8942084981105890
 70.4300556994915041 18.3603608500695081 -0.0267071461095969
 69.1155328471769366 15.9803655458388967 -0.9237067098081930
 56.9794253113986642 13.6002045335133150 -1.9360626237320508
 55.5732771592276649 11.2141322502670864  2.4856017572490261
 54.1769337074833999  8.8777800569726999  1.3898063105866727
 52.7965620997079128  6.5598409448957673  0.3889987644487671
 51.4217298596430439  4.2465787409050124  2.2694118894630364
 50.0505227638302301  1.9313743018719498  1.3278087543348158
 77.1751652111284301 25.4609901389088904 -1.0434585483503407
 75.8107418885351478 23.1238160888872919  0.8771726436276395
 74.4621186090247846 20.7689233039295900 -0.0395686726837367
 73.1321952304061966 18.3992442596367738 -0.9476910839805780
 71.8190020462316880 16.0222627756822611  1.0018957322801174
 59.6985397624175604 13.6292575937129499  0.4292075772016195
 58.3027315744756365 11.2176866058536078  1.3787650021387357
 56.9174801878750287  8.8770308132045024  0.2808593399072265
 55.5416549819144478  6.5578637253103800  2.1604895220968121
 54.1725521161246633  4.2411898015661365  1.2219427248208012
 52.8004807696162999  1.9250002951793783  0.2970594409489908
 79.9175067548445526 25.4609895437562486  0.7858571191605863
 78.5442203566344546 23.1380864520380172 -0.1145885302982043
 77.1819399740448659 20.8001139544913549 -1.0088497356723203
 75.8405156199562782 18.4430370331083573  0.9442177666338795
 74.5278539688609669 16.0718987254878165  0.0627744961644370
 62.4198024753685630 13.6002078792857066 -0.0479345403119476
 61.0943557204603280 11.2176823452088499 -0.5203532315152979
 59.6974800759708728  8.8785339825256511  1.8504115901256795
 58.3101870399666851  6.5727344119375450  1.0210050619682631
 56.9347412602841416  4.2517491959036731  0.1314322601235348
 55.5574391202954487  1.9283532170210875  2.0732343185866937
 82.6738783255911329 25.4609888761465193 -0.2636483803509708
 81.2941776359007093 23.1444620821335434 -1.1453377746593700
 22.9301633721169900 20.8228816453152348  0.8694003955888301
 21.5745908721825685 18.4834017037220733  0.0061174607539087
 20.2538621192019122 16.1224329434847853 -0.8537300604036674
 65.1128900909777002 13.5818043851018242 -0.8817781305418627
 63.8216821532448577 11.2141321503513787  1.2152209099542668
 62.4796090356784504  8.8770310521748694  0.5775534951718750
 61.0869011439473510  6.5727353996544418 -0.1625925594679558
 59.6974790350559488  4.2590500762167576  1.8504110832707708
 58.3180564204021223  1.9337797781436119  0.9805042028931765
 28.4482100487699654 25.4609896549622547 -1.2989758519996846
 27.0658720448504653 23.1411088647216587  0.6732226277885887
 25.6809870915767711 20.8282694378220405 -0.1780689434384166
 24.3049972981377884 18.5096170884244060 -1.0110131087923415
 22.9650522803372539 16.1661964417113317  1.0077543926512675
 67.8138710257304638 13.6033541399580660  1.0576608021447991
 66.5300558630346046 11.2305595814713293  0.2402960465312154
 65.2201539440305567  8.8777801293144467 -0.5313936080705004
 63.8533035869860939  6.5578642335300312  1.5403327805929952
  5.4770849041387422  4.2517475428333640  0.7693661885031731
  4.0937696828722823  1.9337788435109216 -0.0797059031221273
 31.2059134489553109 25.4609916145260691  0.4503996434407316
 29.8264889448845310 23.1356771061676056 -0.4195074024861237
 28.4431814678241928 20.8177085788159246 -1.2685786357605977
 27.0500859800112750 18.5115942995958989  0.7604782415944495
 25.6853694529477288 16.1916861053545453 -0.0102048465070663
 70.5228532711178531 13.6450422460813794  0.1303864740387581
 69.2371292760584112 11.2699820972452525 -0.7183440621990699
 10.9530776001276688  8.9032638130965580  1.3354420831224478
  9.6152641050066130  6.5598397653811471  0.5117997126999554
  8.2392740644583125  4.2411889964251746 -0.3211443342845850
  6.8522560268033557  1.9283524417166116  1.6699735478711537
 33.9657475388079888 25.4609899010382854 -0.6426344601700476
 32.5874684416006630 23.1356771664495859 -1.5221030241693219
 31.2059133782416005 20.8104099573007559  0.4503995446124625
 29.8186133180615549 18.4967381887437199 -0.3790077741233841
 16.2487672544341173 13.6959613714137163 -0.7661477735976385
 14.9600900539314718 11.3201379682155174  1.2135279999922859
 13.6663983443820651  8.9470259204442737  0.3545169130660193
 12.3456697423301431  6.5860573515578462 -0.5053306600758506
 10.9879654618290985  4.2465781356120615  1.4737961074187700
  9.6113452071707304  1.9249995550608345  0.6037388727013175
 36.7253419071192369 25.4609878493059085 -1.7203477734387898
 35.3459549055821611 23.1411091034143936  0.2275765820780643
 18.9580400253759436 13.7493212667736735  1.1296684014219953
 17.6714928918291179 11.3734978091052650  0.2669346400667013
 16.3776688915969650  8.9975613968374333 -0.6043735137002367
 15.0628768974095522  6.6264234133152780  1.3565928476252611
 13.7235828630130889  4.2693463090942592  0.4672507555300240
 12.3613033054387724  1.9313735386952826 -0.4270104620643567
 21.6683930072489837 13.7994775720530658  0.1767450146704782
 20.3826704036759807 11.4244184597373248 -0.6719854935553422
 19.0843904393187529  9.0471971227759287  1.2989148463323326
 17.7733277071058495  6.6702161573453367  0.4060920962969444
 24.3754666106299531 13.8388971782600620 -0.7818949981275617
 23.0895212059699553 11.4661083016219933  1.2431499312605685
