Nb
 1.0000000000000000
    56.9852626216473368    0.0000010415064528   -0.0423858400735107
    28.4936971567969195   25.8525190928012343   -1.4423971723246785
    -0.0021306941731196    0.0000000219721493    2.8424096005155990
 Nb 
 231
Cartesian
 28.4447023845691973 16.2054044302892457 -1.2111849666177763
 33.9936271362637612 20.8193688679361912 -0.7397008957468872
 32.6163941977198135 18.5007435416580535  1.2015936215286540
 31.2325624450739063 16.2006000431847497  0.3551445844638138
 39.4953806934122085 25.4609891153135983  0.0390821719476780
 38.1236277099785781 23.1408158874595848 -0.8808531620660829
 36.7521755173101852 20.8240910280997618 -1.8137434692820897
 35.3799739999235712 18.5081428417692990  0.0811839331667917
 34.0035390855893382 16.1894473193715775 -0.8916994881974435
 16.4378396573691390  4.3167575276040822  2.3495351841955516
 15.0931819469811916  1.9543365000657860  1.4218739931871440
 42.2301046581058657 25.4609892792403727 -0.9535197293850709
 40.8656342232600380 23.1309047053841503 -1.8922787703214958
 39.4941792069573125 20.8115863901701665  0.0004663905416085
 38.1200939209048926 18.4969069922444369 -0.9678418085958542
 36.7354143719749544 16.1796836581548185 -1.9710846902985550
 21.7871020469963561  9.1037368205326086  0.4223950623508214
 20.4648764774637222  6.7236780782545216  2.3637279540838949
 19.1352957967525654  4.3438881132470861  1.4353671637216501
 17.7970051849335142  1.9701282731599228  0.4908700057024455
 44.9441727094478765 25.4609894183353660 -1.9046421732365966
 43.5868790117278380 23.1151231294514865 -0.0205232748984976
 42.2219053156268274 20.7842291572328044 -0.9861148013457337
 40.8447207091446316 18.4634702617998023 -1.9657069154051965
 39.4492368723909408 16.1453779109760944 -0.1281323833623293
 27.0962251157726115 13.8588597920120815  1.0683622305349889
 25.7921389983250684 11.4873324769433438  0.4014036167398325
 24.4807792841826810  9.1155210536351916  2.4028852355256936
 23.1542652213563507  6.7397261813497051  1.4950752482972287
 21.8209336250842796  4.3606313584474963  0.5550983516449739
 20.4844858688507081  1.9816049685184829 -0.4034726843868949
 47.6363413575311441 25.4609895774745105  0.0261495625492085
 46.2907022200162785 23.0993316135957514 -0.9515272388881545
 44.9336673533766486 20.7527022182462559 -1.9352717546192315
 43.5570409388374742 18.4203834716099877 -0.0857902113842235
 42.1606960442309031 16.0970226482009977 -1.0942903999055731
 29.8432921999632192 13.8936257297378898 -0.2437350518943390
 28.4863114832941342 11.4485132797267966  2.5002315955648653
 27.1672571798468780  9.0922058609919318  1.5974624648749121
 25.8360951644647265  6.7317121296370734  0.6633849451563888
 24.4989372784440320  4.3620014610183535 -0.2934340503610716
 23.1592533391906130  1.9859481868981728  1.5765443656486589
 50.3163434030490251 25.4609897375083065 -0.8506767676357567
 48.9781828448382299 23.0878551944317465 -1.8458698553661694
 47.6289927343179897 20.7255718747180957 -0.0070300816471225
 46.2630182557856955 18.3784556735168998 -1.0184676557869690
 44.8709691790692418 16.0460345424791733 -2.0390381847223509
 32.6091049549805945 13.8498199297673210  0.8486114014495537
 31.1889242020667190 11.4380893818738087  1.9118719576102243
 29.8525730245830729  9.0556075152607072  0.8530092598772337
 28.5140430822476816  6.7020576512198353 -0.1358250683048862
 27.1725229716257104  4.3463836846660637  1.7248905274084987
 25.8330654503958570  1.9815751784244786  0.7378177776362193
 52.9898963972701296 25.4609898401377563 -1.7003557339309179
 51.6529502616107052 23.0835123256716734  0.1341473336662722
 50.3146304180769590 20.7088289236522272 -0.8872986472049696
 48.9607040418884907 18.3457819728262308 -1.9210787495896899
 47.5768336582111573 15.9997306816658860 -0.1209290353813267
 35.3299020337858707 13.8469675399131820 -0.2148562484963447
 33.9121131286337487 11.4711916744042792  1.4012753353488125
 32.5361489907232624  9.0719292329008887  0.1730577269010521
 31.1927754401531878  6.6909807086920301  1.9344017581276645
 29.8507786620679418  4.3300419637520022  0.9138983283081171
 28.5098710343330595  1.9723228598589038 -0.0888751950297977
 55.6625102191701160 25.4609898200749534  0.3083259469123154
 54.3267623444638090 23.0878855065968374 -0.7045791336475776
 52.9926339243227034 20.7074592358996235 -1.7358307006232074
 51.6479619153933314 18.3297342836555259  0.0526787302956118
 50.2807990118278241 15.9657232326955700 -1.0200017427402541
 38.0354803874401597 13.8203628997904016 -1.1765724648807989
 36.6085179771081144 11.4758367430752948  0.5589784832630305
 35.2168240460793669  9.1036840268420107  2.2581448473072521
 33.8679430524465701  6.7137072771125617  1.1564084937667711
 32.5296541776747432  4.3345278400712113  0.1059615606303994
 31.1878582315920880  1.9689862667532263  1.9295395443289856
 58.3416965435461634 25.4609896472933457 -0.5203530961601562
 57.0035679550639429 23.0971375758341289 -1.5312720754203681
 55.6662195894151495 20.7230771163892200  0.2824941543202900
 54.3297915757093719 18.3377488373936259 -0.7790107419498846
 52.9766066292851789 15.9539395642551938 -1.8819198295161175
 40.7432127343506565 13.7749396945909055 -2.1260993395973187
 39.3132094031095392 11.4462034596578057  2.4986427403801348
 37.9105184740312282  9.1012023185569415  1.4168501046866007
 36.5462359240152495  6.7328917255205578  0.3392355956310373
 35.2034120400270538  4.3521630380263510  2.1297043523035182
 33.8670012532328570  1.9754532671360308  1.1030048253339884
 61.0224389429671419 25.4609894723772427 -1.3496829896744482
 59.6815551799666650 23.1004737104870514  0.4871426079668403
 58.3444753901632396 20.7394182607006492 -0.5284980511875826
 57.0077394121539243 18.3674031656056833 -1.5782201243838299
 55.6609533886608645 15.9772556868215325  0.1550695231725013
 43.4529468683788522 13.7225098432158532 -0.2278089692216690
 42.0253619085691881 11.4001116943099703  1.5731777583414923
 40.6145192236510795  9.0700991123161341  0.5256229106199605
 39.2318146531651450  6.7226341267798633  2.3225174425930009
 37.8801706459172323  4.3576807677141627  1.2871001059593825
 36.5424532108543190  1.9825418006531534  0.2661275184629865
 63.6979947663324779 25.4609894741270359  0.6587666181650381
 62.3606982148824258 23.0940065006720978 -0.3393921982238000
 61.0233509310408664 20.7349318453803377 -1.3364350928639237
 59.6864720511705968 18.3784792934869579  0.4920061968712917
 58.3462694968603230 16.0138532944225140 -0.5893829928845453
 46.1661209764648603 13.6700494167794595 -1.1653848062703815
 44.7392087761731361 11.3479880302661265  0.6367467918095845
 43.3212210653269381  9.0248162716291613  2.4469954631218140
 41.9294514942848480  6.6920651722289088  1.4245976719676516
 40.5645954055421285  4.3439853525296392  0.4115328674566693
 39.2168014489542998  1.9809180813528233  2.2493314789428251
 66.3728666192665600 25.4609895863507809 -0.1891511177673039
 65.0361501794408241 23.0869181469092055 -1.1762696041406233
 63.6971088554950029 20.7172967460650987  0.6873074140747899
 62.3616397408831631 18.3557522939776696 -0.2859880649431298
 61.0298454991427093 15.9975302865879598 -1.2693379906904050
 48.8788053112273673 13.6233383082564270 -2.0941639703893391
 47.4507337202582988 11.2962661687884154  2.5349414826320009
 46.0329721760141339  8.9748033356957215  1.5037405511946498
 44.6356150887144949  6.6512604102163859  0.4941947006459068
 43.2587772646264384  4.3182215302809004  2.3423772331888690
 41.9025532923812207  1.9706488560855451  1.3575723336543062
 69.0517514103182606 25.4609897127500027 -1.0634771651203716
 67.7104984606927616 23.0885421642105264  0.8069342588502111
 66.3738675315903208 20.7117793630372660 -0.1552970755547312
 65.0399326461105574 18.3365682438278448 -1.1031614736515243
 63.7105206207777357 15.9657758671934253  0.8157478663222278
 51.5860539382106751 13.5902836279808898 -0.1646226751439577
 50.1622754818852883 11.2508691465927182  1.5844655058434283
 48.7466003459527215  8.9270925069437403  0.5395557320498032
 47.3480995725280707  6.6083818015582656  2.3759409911458711
 45.9692205097715103  4.2870227464697681  1.3949172337588871
 44.6041636488347351  1.9553078067691065  0.4282387145204999
 71.7415797659545120 25.4609898351111070  0.8691423590252749
 70.3962503393901784 23.0988115945756789 -0.0848249450876852
 69.0582923301015938 20.7254750137650419 -1.0308644664327307
 67.7255114518288792 18.3468261923961542  0.8801200862593368
 66.4042150675327747 15.9682579325341685 -0.0255473014521375
 54.2858355955001599 13.5821282269304877 -1.0409905456076527
 52.8715101028397427 11.2198851478261616  0.6258820487421628
 51.4606549869697716  8.8903692115939794  2.3918894759622398
 50.0717084819322480  6.5727367096893765  1.3831053340422526
 48.6950091988058773  4.2582185242026256  0.4109198894535983
 47.3229650134514657  1.9390771151442836  2.3018403371009648
 74.4529734580389402 25.4609899401655895 -0.0804082659992108
 73.0978606993168682 23.1141528469015967 -1.0141585785824911
 71.7524742090411110 20.7512390523463743  0.8999798366379039
 70.4231483339008690 18.3773953388646163 -0.0177998031213453
 69.1082159019384221 15.9993613221810573 -0.9167746597999697
 56.9821396610116864 13.6209481613121000 -1.7845621824862794
 55.5877915247211263 11.2106003662485012  2.4683726188001689
 54.1860444637512018  8.8738633410013676  1.3510569142824931
 52.8070094234717473  6.5548281705594666  0.3487788233414186
 51.4341294327097316  4.2411665846849456  2.2308760231057456
 50.0628861738332915  1.9272437115049794  1.2934202436639168
 77.1853281368180291 25.4609900579250024 -1.0707526292038632
 75.8166620374901754 23.1303837961311629  0.8594430719027502
 74.4629174585033411 20.7824380017474972 -0.0474801547632558
 73.1293119547713388 18.4182002387530375 -0.9482027980890437
 71.8149178028452013 16.0446443535091277  1.0045978457169971
 59.6826204444471387 13.6313707834568643  0.4694802092136918
 58.3348593576468915 11.1758315619827933  1.1562573651902059
 56.9362689569314568  8.8640551643664161  0.1888217950868613
 55.5592973358643292  6.5567737714448073  2.0959061186885832
 54.1897494607533190  4.2410832322173855  1.1665073850877008
 52.8173377050842063  1.9241096853515740  0.2472896208327176
 79.9330272599600846 25.4609901862118875  0.7424133112564444
 78.5565831456392800 23.1422174510452017 -0.1489769438070748
 77.1887061073702228 20.8112424382847649 -1.0314774121848662
 75.8417964577582637 18.4610790036492673  0.9335435386840187
 74.5266689475974715 16.0946573868090148  0.0613429494938022
 62.4058090127210647 13.5982678373822736 -0.0411220273159446
 61.1028014823132111 11.2196400023535467 -0.5937897262738917
 59.7241293795416226  8.8688590227138331  1.7551514115855062
 58.3328197370326222  6.5660379862983387  0.9370427176594827
 56.9549356941167844  4.2498239842277510  0.0608026753829648
 55.5769000553946668  1.9281488812540351  2.0107184036763197
 82.6924942071141800 25.4609902135929396 -0.3204374945955326
 81.3110346250987988 23.1453517022680622 -1.1951074228528966
 22.9425635992462240 20.8282936824898499  0.8308647752526489
 21.5801427253615010 18.4967232591943826 -0.0169061124622968
 20.2550345658645412 16.1423672630333606 -0.8604559859042499
 65.1022141765480171 13.5936234508505311 -0.8834191744773139
 63.8214675119010479 11.2224926268202037  1.1851548408553185
 62.4951052230873003  8.8800125948083792  0.5083097716172825
 61.1100912211356047  6.5687162447416849 -0.2408064405929549
 59.7201127621838026  4.2549805223681094  1.7754356036834706
 58.3398111702153201  1.9319955435925074  0.9111589368525999
 28.4690766605523891 25.4609891062572657 -1.3645470438250620
 27.0853343509054874 23.1413114521136727  0.6107073677113057
 25.6981834916410676 20.8283772371434779 -0.2335034841002879
 24.3154435391524544 18.5146321393818951 -1.0512321260748769
 22.9690892120599166 16.1790908173857524  0.9918779886347595
 67.8069058402123659 13.6232570287535228  1.0562450054549026
 66.5270459119934827 11.2490975141336005  0.2234391077125764
 65.2269800593798550  8.8897766753481253 -0.5710737363060531
 63.8715400443017387  6.5613171074153644  1.4811944445625640
  5.4999305959592988  4.2500898201265613  0.7026956237477640
  4.1169461283028719  1.9319172490476917 -0.1475248291641267
 31.2286173077076192 25.4609890261654463  0.3824636002724409
 29.8482454238096935 23.1374644559711484 -0.4888520226852501
 28.4633697577140623 20.8196362046544898 -1.3392077365685144
 27.0677310658175436 18.5126867372863231  0.6958961838946814
 25.6944785271954181 16.1955970747057592 -0.0489533386216874
 70.5190584636752078 13.6693489006196742  0.1307799946649374
 69.2347783919878026 11.2945208556585168 -0.7260876683646315
 10.9555398537680215  8.9240815877521147  1.3142649246799287
  9.6263970613466459  6.5725522132147312  0.4745552472240315
  8.2584787938513156  4.2453678837977771 -0.3713465329718640
  6.8750359038329449  1.9282597962210875  1.6118972142024590
 33.9892202719080316 25.4609889429160141 -0.7054617770233781
 32.6106430183393172 23.1375414888323974 -1.5899216710053892
 31.2285467254293643 20.8144793306737590  0.3754252632984206
 29.8412531901977900 18.5034219702602520 -0.4629662915206929
 16.2476427419275282 13.7214716245248116 -0.7632651283373358
 14.9592499798374288 11.3469497858925621  1.2145885678386945
 13.6669990517962816  8.9724369191381577  0.3481070354082960
 12.3510237323289616  6.6059891939352964 -0.5233095837082511
 11.0004822928165318  4.2578728896453635  1.4428636074918153
  9.6299307651624293  1.9286431487989504  0.5615439821206922
 36.7470731198929244 25.4609889586768396 -1.7710893132991934
 35.3687327893992034 23.1411990143406356  0.1695002312916809
 18.9591676969437479 13.7731935929778704  1.1349295396445567
 17.6724240543600608 11.3994102871179503  0.2770127045373461
 16.3772722097129737  9.0234251234974945 -0.5966407447343018
 15.0633439418796797  6.6490761752870187  1.3566071881717368
 13.7282083147857712  4.2852303619114052  0.4562825303784180
 12.3719372046487166  1.9385546107472655 -0.4498815307639875
 21.6707095307311803 13.8185907030104360  0.1844534108958995
 20.3851083456606403 11.4461215186554846 -0.6517666562565786
 19.0831366747911915  9.0697291363221613  1.3214682661723693
 17.7693212840306352  6.6910041283599924  0.4239296928361696
 24.3799441621457440 13.8495749004535629 -0.7741302440179880
 23.0923569414454128 11.4791765012286930  1.2777739045320617
