Nb
 1.0000000000000000
    56.9852626216473368    0.0000010415064528   -0.0423858400735107
    28.4936971567969195   25.8525190928012343   -1.4423971723246785
    -0.0021306941731196    0.0000000219721493    2.8424096005155990
 Nb 
 231
Cartesian
 28.4403213515443340 16.2002709614718547 -1.1766761365657601
 33.9902479835628171 20.8168206474504949 -0.7300722258759491
 32.6117980608384883 18.4971738665608534  1.2193689075570622
 31.2251877763058268 16.1946209945482025  0.3874581597063053
 39.4929520629878539 25.4609891458798216  0.0414575097154533
 38.1209416260773395 23.1404337674614702 -0.8772943036850961
 36.7494498693077176 20.8228602401751637 -1.8076748359957855
 35.3771998306049014 18.5064057035170428  0.0923898046843813
 34.0011399332382211 16.1878560570388039 -0.8717563370128040
 16.4383906205520738  4.3153976321187173  2.3484747094537637
 15.0930760194696933  1.9535630344950301  1.4217287432263590
 42.2290784732258047 25.4609892831971187 -0.9528347919176129
 40.8640579878818357 23.1313629285448208 -1.8906777963572181
 39.4926720230783417 20.8120323149078104  0.0034864564629722
 38.1193013073800557 18.4972475220587533 -0.9624742659639793
 36.7359002098026650 16.1800191056069806 -1.9628554419516009
 21.7862054742732525  9.1039043877540209  0.4136907629828911
 20.4656314655298281  6.7235057182116629  2.3583509788583616
 19.1367785278567943  4.3433178493342472  1.4321989464073941
 17.7983677308661896  1.9695743434677870  0.4889956991275521
 44.9448375292484101 25.4609894088356938 -1.9055957469420530
 43.5867730854160627 23.1158965880849152 -0.0206685229666843
 42.2215037832542279 20.7855886969240764 -0.9853092137173610
 40.8447385742450706 18.4651001486168020 -1.9636037254442318
 39.4503251122986285 16.1471082105768637 -0.1246869184933776
 27.0914426030290194 13.8593705020166169  1.0755745436308375
 25.7920220768663242 11.4915120070736059  0.3746908135840999
 24.4818380366011077  9.1195029257466551  2.3837687772641245
 23.1562205840777864  6.7423590018231421  1.4842375620518020
 21.8233376234277827  4.3617200004099050  0.5490480627176886
 20.4869816157642326  1.9817717536041048 -0.4072637540315051
 47.6385010781416369 25.4609895507938511  0.0234801606714759
 46.2920647768389131 23.0998855126620697 -0.9534015463435485
 44.9342183158076978 20.7540620995950498 -1.9363322287095621
 43.5572995726702672 18.4222775790841702 -0.0858206727580963
 42.1613515763398183 16.0990170733428570 -1.0931742952845549
 29.8302633530417154 13.8698270458976278 -0.1184962560876089
 28.4837581998624536 11.4598790925777720  2.4151730746100153
 27.1708144170769401  9.1017469211254944  1.5623897002143685
 25.8394506636621806  6.7381306721334280  0.6461892007504721
 24.5018592990765143  4.3656181966345446 -0.3026595463794076
 23.1620904931991447  1.9873192634187742  1.5708867813586966
 50.3192187149638599 25.4609896753607750 -0.8550230440357726
 48.9806786201969047 23.0876883318413277 -1.8496609376312334
 47.6304754857505017 20.7261421013912361 -0.0101983098103276
 46.2633957535444651 18.3799521352057766 -1.0206343965463964
 44.8709502094968329 16.0478685344371144 -2.0398889147382500
 32.6088019774734619 13.8479153808052313  0.8766808437101832
 31.1952916345280151 11.4377154876327918  1.8851326894088936
 29.8549179589851654  9.0613496524287900  0.8178205460575509
 28.5173628362377691  6.7073133076203915 -0.1560149322964615
 27.1749358945738457  4.3506880375307588  1.7139110609128929
 25.8351462438259176  1.9838004263284605  0.7312436530837999
 52.9922721478382499 25.4609897448276392 -1.7056907143129056
 51.6557874648823514 23.0821410832627159  0.1284897011199032
 50.3170344832772187 20.7077401784168273 -0.8933490090382039
 48.9614590455948502 18.3459542868334857 -1.9264557856807338
 47.5761250992564513 16.0011211210790734 -0.1244472819542925
 35.3321987880590314 13.8465769191816523 -0.2064948278878913
 33.9180575822530272 11.4672457287781704  1.4004442196954150
 32.5386351831903298  9.0676701177700618  0.1611742564810889
 31.1936691904850818  6.6899526605640176  1.9192720804207279
 29.8519803020807579  4.3309419842370875  0.9039601561157506
 28.5107396820391017  1.9736474054589146 -0.0949825443133717
 55.6636233507153264 25.4609897403751511  0.3032235997287856
 54.3288431903651698 23.0856600298407422 -0.7111533379233259
 52.9955560683321139 20.7038422212869051 -1.7450563763556568
 51.6499173766131037 18.3271012716337545  0.0418407839343822
 50.2799023961922771 15.9655556081816190 -1.0287062324429390
 38.0378769832776982 13.8217815323833424 -1.1729022039064643
 36.6123292698677076 11.4756691139034785  0.5604440860070352
 35.2193886838477610  9.1005876944827264  2.2545558057698205
 33.8690946465083798  6.7095282233359370  1.1488659805629977
 32.5303388350959537  4.3318697458233242  0.0988795216828226
 31.1882472259171024  1.9683075345000147  1.9245777676792597
 58.3419321872406442 25.4609896402833478 -0.5245586397323977
 57.0044366396635596 23.0958129052798853 -1.5373795138269084
 55.6686326559910967 20.7187724527513240  0.2715144006547456
 54.3331473027599614 18.3313298255427419 -0.7962070991602278
 52.9776654609937623 15.9499573970221089 -1.9010371045769443
 40.7445660042767983 13.7766843644856358 -2.1242674921863562
 39.3152002599653372 11.4470962602473492  2.4999775977491332
 37.9122838386789809  9.1006293382289947  1.4160929598010996
 36.5473717028565588  6.7312483335251008  0.3357947240625904
 35.2043688912307360  4.3496789807708121  2.1251739961536456
 33.8676896036831678  1.9738785577336071  1.0990808207414817
 61.0228036625894958 25.4609895410681624 -1.3532110338859287
 59.6819442094168835 23.1011525333938152  0.4821807475734280
 58.3456771337848323 20.7385182210167720 -0.5384365451414642
 57.0110594473435270 18.3621471837524020 -1.5984110089285060
 55.6645109239991456 15.9677138916891206  0.1199944143837186
 43.4532801757087057 13.7240912059750588 -0.2274452836514985
 42.0262134614819942 11.4012293954622503  1.5740462891614924
 40.6155736028312546  9.0705577941856355  0.5258900426779504
 39.2327989697661295  6.7224724430223395  2.3214011495466118
 37.8812235630610559  4.3569428796294449  1.2847368635886427
 36.5435964805658529  1.9816383491010472  0.2633277439169882
 63.6989572444320515 25.4609895577918763  0.6558287900196904
 62.3613866075775718 23.0955814094509257 -0.3433162762317600
 61.0240356751291628 20.7375901909462890 -1.3435173721791345
 59.6873659305530850 18.3795075151593892  0.4768756650008697
 58.3486145737330588 16.0081108381342290 -0.6245747726574729
 46.1654141700590159 13.6714849471329334 -1.1667829718387859
 44.7394287295266864 11.3491125660785688  0.6367527787901008
 43.3219449705671877  9.0257083275888839  2.4473808545673537
 41.9302552764921046  6.6926626852081821  1.4245292570182198
 40.5654870856795000  4.3441795853389635  0.4106646271651519
 39.2179451342059338  1.9807881773991416  2.2477861575924600
 66.3741128764422399 25.4609896400336311 -0.1911787306823549
 65.0372934849911104 23.0878217434842838 -1.1790694277505447
 63.6980657664226797 20.7197810246657923  0.6827769029074664
 62.3627914082158341 18.3599317027899325 -0.2935309608961709
 61.0323317434405226 16.0017897497059707 -1.2812224780479176
 48.8771063839653905 13.6244754685131326 -2.0984755803871646
 47.4505505690758724 11.2974309819344860  2.5337454852475059
 46.0336952616212187  8.9758589899890087  1.5038727438987947
 44.6363097969680709  6.6521936894345108  0.4944509389344713
 43.2593204309876640  4.3188784421490425  2.3422548417885398
 41.9032475191141813  1.9709110331607178  1.3569587517533688
 69.0527270412682554 25.4609897404821055 -1.0645256098428664
 67.7116421642109003 23.0886721431736675  0.8053889171594132
 66.3749204763328038 20.7125173497578565 -0.1576603937378317
 65.0410684414973304 18.3382117700689946 -1.1066025258838292
 63.7130852889085446 15.9688724496997434  0.8121585108501845
 51.5839495527685514 13.5899007649627031 -0.1753616205278188
 50.1621947883811217 11.2519029951077343  1.5813000298283182
 48.7475928856114678  8.9280504309943112  0.5395762975093680
 47.3487645613424419  6.6092840197730647  2.3765332734230631
 45.9693642983745221  4.2877748556941393  1.3952667107881580
 44.6041860522636853  1.9557393084696257  0.4282144812146598
 71.7419040014952287 25.4609898448043168  0.8687807550695136
 70.3969445693836207 23.0985494543697882 -0.0854385311449712
 69.0591840160209927 20.7252808310326913 -1.0317327312100508
 67.7264957665370986 18.3469879314304869  0.8790037250432162
 66.4059804618189844 15.9688309897075857 -0.0263045610238069
 54.2857187444109925 13.5779483205235056 -1.0677051442208503
 52.8710754716305118 11.2196634100253725  0.6209084859255944
 51.4615496347807593  8.8901658082423030  2.3933133403128428
 50.0721990810042072  6.5728055550087321  1.3849752728122062
 48.6946583051302895  4.2584862335088811  0.4121938587301869
 47.3222298470865823  1.9393884564424730  2.3025542771958096
 74.4524327930602254 25.4609899312563570 -0.0801345446473666
 73.0978831038684831 23.1137213459211566 -1.0141828112369637
 71.7530173737434609 20.7505821574888607  0.8998574389357720
 70.4239521046945640 18.3767978543609800 -0.0178682414216447
 69.1092702750496954 15.9989026741347615 -0.9165075701625078
 56.9795858853493584 13.6095816614674519 -1.8696292247884632
 55.5830089359203683 11.2100896011992290  2.4755859713536292
 54.1856732557535423  8.8717594832392042  1.3609211299150545
 52.8066971492877215  6.5527844424264012  0.3545332461674861
 51.4331438724036900  4.2399202578934547  2.2341546450971150
 50.0615529905081402  1.9269083820681707  1.2954138380032283
 77.1840324362804182 25.4609900251209424 -1.0694885381994474
 75.8159268867089082 23.1300724143187573  0.8601570058329344
 74.4630612489774251 20.7816858868686971 -0.0471306850895048
 73.1300066472079493 18.4172669701214708 -0.9479465763013557
 71.8156416877590260 16.0437523114242353  1.0049832140117740
 59.6889877975643728 13.6317446733490470  0.4427364484053287
 58.3218300885547336 11.1996317377909413  1.2815079507921372
 56.9318874877658061  8.8691887596745236  0.2233333326920768
 55.5565404643464475  6.5545603666470331  2.1096932569801501
 54.1880056917173434  4.2386100113303486  1.1732261192601563
 52.8158658854387824  1.9229340093666956  0.2510838070717605
 79.9315164670826448 25.4609901250859139  0.7450414787603956
 78.5552500067354629 23.1425526827354595 -0.1469833771679636
 77.1883552404165130 20.8109746793751320 -1.0302034712072545
 75.8424614275867128 18.4601767874768790  0.9341357943707675
 74.5273920010862412 16.0936017441627186  0.0614751129774455
 62.4117537964645592 13.6022141275671995 -0.0419533678301403
 61.1024988353898451 11.2215449335715967 -0.5657187219577910
 59.7167541002273126  8.8748384449441620  1.7874679217166918
 58.3283771529540473  6.5687538935889123  0.9580064321880919
 56.9528475349026095  4.2495845159172996  0.0716055198606773
 55.5755924945361173  1.9273716069077740  2.0165679803275505
 82.6912717535105060 25.4609901546399335 -0.3163167755222948
 81.3095628670350834 23.1465272269241922 -1.1913133082049521
 22.9415781222079396 20.8295398743425864  0.8341433008290516
 21.5806333234573025 18.4966543754932431 -0.0150362550176346
 20.2560270423491353 16.1414093583286267 -0.8604354663613194
 65.1060256769305425 13.5937911482717180 -0.8819536719381882
 63.8237645712972466 11.2228833008618825  1.1935164439887358
 62.4927059815117687  8.8816039841574899  0.5282540741918219
 61.1054947717913350  6.5722861707920375 -0.2230302663199555
 59.7171361410786332  4.2572831129264062  1.7872791208461656
 58.3381176061619584  1.9326494521433897  0.9182486077137941
 28.4678272968066963 25.4609890864000334 -1.3592691891351822
 27.0840268347676876 23.1420886117422384  0.6165568225976830
 25.6964398792366033 20.8308502314642823 -0.2267849823510395
 24.3151313525632986 18.5166756862867175 -1.0454779909472052
 22.9699838039456843 16.1792941934889676  0.9933016983078181
 67.8088967664528042 13.6223642523673032  1.0575798249617403
 66.5294426920776232 11.2476788496959212  0.2271093767878991
 65.2274659932876517  8.8894411916150045 -0.5628442522860890
 63.8687657436659180  6.5630543630644631  1.4924006985771667
  5.4965512759960635  4.2526382356881633  0.7123245533202508
  4.1145881601947671  1.9333273575828605 -0.1405633518460895
 31.2268873909186553 25.4609890517975295  0.3881994153990239
 29.8465519157106129 23.1368105606322843 -0.4817624881831897
 28.4612817480372442 20.8198755613393054 -1.3284052931726482
 27.0649744788767954 18.5148998361285777  0.7096825887405176
 25.6941073650385583 16.1977007612182291 -0.0390899256262239
 70.5199100180346221 13.6682312100416965  0.1316485117318938
 69.2361317249928305 11.2927761649719667 -0.7242558135470839
 10.9566281906766783  8.9223512325962204  1.3177104247555735
  9.6256044533050176  6.5722116933291188  0.4799228764367171
  8.2557530481062802  4.2465987833522512 -0.3652778019324755
  6.8720540429910688  1.9295754794580464  1.6174953603255464
 33.9867359221751926 25.4609890028042436 -0.7001384478128488
 32.6082851141316681 23.1361315045479969 -1.5829603081917225
 31.2255702757708811 20.8121768586985105  0.3872683633429451
 29.8368109879056362 18.5007061199461802 -0.4420037853800494
 16.2478626885477233 13.7203470932086482 -0.7632591581403105
 14.9595833073393116 11.3453684193052933  1.2149522578802270
 13.6676546246507691  8.9704424714674609  0.3492231515397136
 12.3510416254780786  6.6043592870759165 -0.5212063814692131
 10.9989750827104604  4.2574269878154434  1.4458836919382951
  9.6272446335992594  1.9290253521010472  0.5651028613326297
 36.7441262036340959 25.4609890200566653 -1.7670287576498906
 35.3657510051300292 23.1398834808068514  0.1750983113817033
 18.9589845314936944 13.7720287901730742  1.1337335208237815
 17.6717172824024189 11.3979747607901292  0.2756145384667858
 16.3772532658221159  9.0215911273444434 -0.5974914662158031
 15.0636025946720782  6.6471820521942000  1.3565767310404733
 13.7278067853450043  4.2838708155040601  0.4570881180697146
 12.3703609570171462  1.9380964110565915 -0.4482805568192932
 21.6706287777532225 13.8175568770416870  0.1812879666205464
 20.3834094828795251 11.4449843555516022 -0.6560782207638031
 19.0824281534092428  9.0683386973542124  1.3179500479766992
 17.7696987896164345  6.6895076564465148  0.4217629590029612
 24.3795094689942111 13.8497965847031903 -0.7791036647530312
 23.0902526472272314 11.4795592817267202  1.2670353240814287
