Nb
 1.0000000000000000
    56.9852626216473368    0.0000010415064528   -0.0423858400735107
    28.4936971567969195   25.8525190928012343   -1.4423971723246785
    -0.0021306941731196    0.0000000219721493    2.8424096005155990
 Nb 
 231
Cartesian
 28.4605104431934990 16.2051241913629021 -1.3135739787173288
 33.9999217356893340 20.8260302625439522 -0.7543900590748962
 32.6268864742336788 18.5098256260884746  1.1651188004340070
 31.2501571128045583 16.2076745534984461  0.2520503848909585
 39.4987226805437999 25.4609891337570993  0.0367817067450826
 38.1274031397857271 23.1418461618937243 -0.8845972867333034
 36.7562333123510072 20.8271461348456057 -1.8211398335225637
 35.3836971614775777 18.5127380251407772  0.0633987997885752
 34.0050308113649535 16.1937549692650045 -0.9333167820710125
 16.4368995934142639  4.3179843869413732  2.3502842050434012
 15.0933253478275002  1.9551226849086392  1.4220318534174898
 42.2315630179195409 25.4609892962211717 -0.9540191735676996
 40.8677288626312745 23.1304879076164696 -1.8936682973042698
 39.4959044284153933 20.8112499211779216 -0.0024292580227734
 38.1198737656060942 18.4965970653632361 -0.9740223375759171
 36.7316109113531368 16.1788687957783921 -1.9823888648571049
 21.7878559563080714  9.1019813024207039  0.4324515378671293
 20.4639861250026946  6.7229812120147701  2.3693371913502288
 19.1334008046572954  4.3440440373014626  1.4382964783592371
 17.7953555229435274  1.9705762398298248  0.4924759950164332
 44.9434905006491761 25.4609894105417105 -1.9037886555668910
 43.5870224134930382 23.1143369486498500 -0.0203654118242390
 42.2220432600498654 20.7827667648836005 -0.9868615262663594
 40.8435934423207954 18.4614772075681373 -1.9677047463153379
 39.4455931921765242 16.1428467578154198 -0.1314444133904243
 27.0912074922127495 13.8531796915930840  1.0233875564585102
 25.7896644679514750 11.4752008091207998  0.4464963256450636
 24.4796614305053524  9.1065093091117788  2.4309554343912105
 23.1517793175061435  6.7343392462352556  1.5085824154122900
 21.8179370905541070  4.3583484385116389  0.5617996854262356
 20.4814022430570901  1.9810924818068874 -0.3997585246326796
 47.6337392650442837 25.4609895480027362  0.0285606651328585
 46.2890525674487208 23.0988836111430409 -0.9499212537198864
 44.9327272749077054 20.7514753473893805 -1.9345227404704080
 43.5560151547294012 18.4185492393961212 -0.0861198194812404
 42.1588045231657489 16.0950265922191811 -1.0956273478879659
 29.8505551209774822 13.9100994408570529 -0.6203551009281302
 28.5063490243295590 11.4380165401741536  2.7349661279451571
 27.1625490034910300  9.0757864147975837  1.6650922634345751
 25.8304067753747972  6.7176633737312148  0.6884522777771129
 24.4947689429103761  4.3543468592030230 -0.2821162693840590
 23.1557658265219963  1.9832973947112675  1.5827400767471358
 50.3128142366015325 25.4609896877538375 -0.8462742638704809
 48.9750992545859773 23.0883675943725031 -1.8421557235669832
 47.6270977634231798 20.7254159021920366 -0.0041008073689007
 46.2621688055150244 18.3774705082714576 -1.0167878685762866
 44.8703967045671845 16.0447900588340602 -2.0388671211395648
 32.6001725523030288 13.8579898725452892  0.7931031826644713
 31.2035683343508765 11.4409655004987822  2.1031210175562580
 29.8468906657193678  9.0520026526269515  0.9619053587128804
 28.5059778451797179  6.6926819606447481 -0.0958734394796561
 27.1684559790313074  4.3371571733688814  1.7400963255051771
 25.8308560511344290  1.9768567223968985  0.7453262279138660
 52.9874155095719530 25.4609897930570028 -1.6946439466468022
 51.6494628045465731 23.0861630029760470  0.1403429809735535
 50.3116339531236321 20.7111117473385846 -0.8805974290214553
 48.9598136560756600 18.3464787964146616 -1.9154696636989030
 47.5772153956465189 15.9992191830441222 -0.1178138663106054
 35.3205176844348827 13.8489978694541431 -0.2208678232565904
 33.9054305403122100 11.4831116455658435  1.4269994316731163
 32.5329883753006399  9.0843564047426586  0.2240974630885317
 31.1864942495057207  6.6979704702039777  1.9712756016903055
 29.8476325670464711  4.3296388132010417  0.9304614425927934
 28.5096040108405866  1.9697033146108698 -0.0815722077827626
 55.6623722705157107 25.4609897819305218  0.3136783692866126
 54.3245529791519957 23.0926038958311644 -0.6970707607970256
 52.9884656987800682 20.7151137487439634 -1.7245131287338524
 51.6454761133138049 18.3351211034318489  0.0661855041698655
 50.2815526763701612 15.9674787567871590 -1.0099456873853798
 38.0295311508102998 13.8190031283227359 -1.1781868678141993
 36.6039723218923996 11.4783475338608945  0.5656262950537398
 35.2153248915232950  9.1119442365068224  2.2768143772324150
 33.8640266775347172  6.7261316750680065  1.1760610411625398
 32.5265997108067850  4.3428517347002185  0.1192401134895225
 31.1877890735486538  1.9713223137440419  1.9363449611718213
 58.3428513145940144 25.4609895963680195 -0.5158018128573663
 57.0033009309708234 23.0997570592354400 -1.5239691230114487
 55.6621526492535494 20.7323035450546023  0.2976997712029980
 54.3241033915279630 18.3517974494356224 -0.7539440318124864
 52.9754887997293338 15.9629512156003273 -1.8538507406538811
 40.7406226955579811 13.7735344997039153 -2.1274244868533190
 39.3114309219062648 11.4463566776215497  2.4999056639898787
 37.9097784777669276  9.1031827820087141  1.4230218878340892
 36.5445354497861601  6.7374819074351624  0.3490959542757756
 35.2004213326570650  4.3590044891178259  2.1388554958399983
 33.8654262143133309  1.9797970832677318  1.1093678302143066
 61.0225821414762919 25.4609894007157678 -1.3449698466093645
 59.6814859858061055 23.0981375171666308  0.4939480749270034
 58.3413292273453763 20.7398212434810141 -0.5119348522601626
 56.9996742583354390 18.3767785354080750 -1.5382685503204205
 55.6562455480785800 15.9936744940460844  0.2226975697144207
 43.4521829175006715 13.7216755269918806 -0.2286682999332202
 42.0247127785449521 11.3997711371357546  1.5728005032570282
 40.6139689846989640  9.0701526496358849  0.5272146484538875
 39.2309172568846733  6.7234522280653648  2.3263657608022363
 37.8779707476209921  4.3597016262970936  1.2922387759928295
 36.5397938225129408  1.9848866731812516  0.2710917999014155
 63.6961139594692511 25.4609893901915250  0.6634599208147596
 62.3591230945289041 23.0896624815508709 -0.3330291040877832
 61.0202962461959260 20.7266076741176377 -1.3231562668730423
 59.6801903911926601 18.3714890326507110  0.5288808390643343
 58.3405870348493707 16.0174569735161718 -0.4804849565356173
 46.1663559679830371 13.6694903664451939 -1.1648784924689874
 44.7385620428393622 11.3473877273103909  0.6360229704154039
 43.3203548189264183  9.0240824372373645  2.4466975688203525
 41.9284883124486356  6.6915398605169747  1.4254859693464408
 40.5630591956415003  4.3440022013385242  0.4135587070125762
 39.2143834651990986  1.9814022870552326  2.2520971939457861
 66.3700908932448215 25.4609895171493612 -0.1857562673850352
 65.0334907210787918 23.0845731055320833 -1.1713052560702062
 63.6941179693134814 20.7104550506980587  0.6964587928095916
 62.3577230636135909 18.3433274918157956 -0.2663347048103148
 61.0266847095987188 15.9851024853522521 -1.2182950753787485
 48.8793346679185916 13.6232695690620655 -2.0903917859177863
 47.4491329012401266 11.2951798834267017  2.5348398177614087
 46.0311823728724647  8.9733022804601994  1.5027670753369979
 44.6345041834046654  6.6498781155630073  0.4937440487030409
 43.2579211109933865  4.3173106486332138  2.3427487282263502
 41.9012347505830220  1.9703387581893395  1.3586440794783126
 69.0497085663231189 25.4609896746743054 -1.0617772743270926
 67.7080804375325158 23.0880578600097373  0.8097000033462315
 66.3716675395434521 20.7097583844628943 -0.1501582748798353
 65.0382320880879234 18.3319778717994915 -1.0933006571557364
 63.7090216163829552 15.9575154618789554  0.8344188637151371
 51.5855550335082427 13.5929133168820790 -0.1511648414709335
 50.1581191080088118 11.2497313638198495  1.5860650145952850
 48.7432100061332463  8.9250805554394805  0.5376560779546753
 47.3468026901024430  6.6067806186738993  2.3745249533047033
 45.9692137345955061  4.2858252768341059  1.3943182372205798
 44.6042901798430620  1.9546679250062424  0.4283096818931439
 71.7410571532856238 25.4609898256564087  0.8697157482013127
 70.3949317847591090 23.0991216502593062 -0.0837531918628240
 69.0567561120875126 20.7254581120627321 -1.0288385824542376
 67.7246141147248579 18.3460080422124570  0.8839685750127100
 66.4034753651439615 15.9662774461228665 -0.0193750215661452
 54.2833604301638601 13.5942600511741549 -0.9959002730774091
 52.8647701580038429 11.2218453660736568  0.6272833846669140
 51.4568823352891158  8.8900947852303744  2.3838924418993659
 50.0709781258054036  6.5726629699067951  1.3784302969610980
 48.6962907321090555  4.2579962609466193  0.4087183371429678
 47.3247453736519930  1.9387234087271392  2.3007648732752974
 74.4542343227063981 25.4609899479442667 -0.0807854980261570
 73.0979872287957733 23.1147927279183847 -1.0140876139667818
 71.7516180752784436 20.7521499194624113  0.9003513434857284
 70.4221852369220187 18.3779206403833690 -0.0169114439511813
 69.1076658923402931 15.9993078054364926 -0.9151827509979287
 57.0021774511203532 13.6314434106887497 -1.5498297855378462
 55.5827727856184168 11.2162809881576493  2.4233956139290429
 54.1865169783589806  8.8784692279325181  1.3153311291368472
 52.8095316109944051  6.5597692944470927  0.3337172406011960
 51.4374102017509003  4.2442972887034243  2.2246667517076655
 50.0660945161228810  1.9282843913806156  1.2902861464560038
 77.1882064980787845 25.4609900902551196 -1.0726466144336906
 75.8184423869081456 23.1307375469351832  0.8583676048729540
 74.4629106988169838 20.7836354796543716 -0.0480791457836754
 73.1282011308324513 18.4195825222379206 -0.9486534141177725
 71.8140517244150232 16.0453781806389451  1.0043000466350536
 59.6972663732878459 13.6284936895109308  0.6607405629896711
 58.3421214194413764 11.1593630886297817  0.7796315194858719
 56.9520775713147387  8.8643365978130539  0.0864308527653116
 55.5689300155179282  6.5654995094758846  2.0618377569991879
 54.1952772642931819  4.2478245841224505  1.1531479952577373
 52.8208289363717611  1.9271687798798516  0.2410896735508419
 79.9362782386702690 25.4609902399444579  0.7383864863316013
 78.5597914350608590 23.1411768554452415 -0.1521110215418742
 77.1899876089737091 20.8114647355764184 -1.0336789311481929
 75.8404996536785916 18.4626801757907373  0.9321275527571560
 74.5248793186038228 16.0961584177116812  0.0603695641790871
 62.3991271962946072 13.5863476825360898 -0.0153946399986484
 61.0938691657018893 11.2114702474859556 -0.6492973499566099
 59.7417240549623969  8.8617854647096621  1.6520553550466794
 58.3457863573106081  6.5646967581150095  0.8875934705345832
 56.9605616649199291  4.2532012228867391  0.0400124950387255
 55.5794046096038983  1.9307966492786375  2.0013986616135537
 82.6945542834677809 25.4609902714312675 -0.3265580564326419
 81.3145257796478802 23.1422927270080372 -1.2013073174135245
 22.9458442675032508 20.8251630469493954  0.8246556248093153
 21.5794123526763109 18.4967970038340077 -0.0215809782961483
 20.2516444086324476 16.1443791563114019 -0.8623554681867619
 65.0976691121684325 13.5911125718343122 -0.8767703758909833
 63.8120833005670391 11.2204622861563958  1.1791442535497443
 62.4965967531461146  8.8757048848648736  0.4666927135947427
 61.1205835802470006  6.5596340664221930 -0.2772813370779428
 59.7262213657080778  4.2506266920010818  1.7541347031802614
 58.3421867676679398  1.9316503021282789  0.9005069366412256
 28.4703958745313308 25.4609891645641255 -1.3718653334422484
 27.0878388377287607 23.1386638464228724  0.6013876804949178
 25.7037111148464312 20.8216359834398652 -0.2468626465827382
 24.3179655607044616 18.5096910369128587 -1.0662932310024518
 22.9653167010867811 16.1793651358698369  0.9838814498650219
 67.8051277882794352 13.6231037878715338  1.0575082336118677
 66.5210968992239913 11.2504572593959917  0.2218250914196813
 65.2231765468022786  8.8905915332458800 -0.5823776058477598
 63.8752630957206762  6.5567218489650019  1.4634095084809442
  5.5062252301538530  4.2434283408437796  0.6880065140242827
  4.1199542353890326  1.9289432112692368 -0.1572822134452292
 31.2301724759275601 25.4609890824745868  0.3749743305658612
 29.8506209961404316 23.1378098571935737 -0.4995039850835794
 28.4689955677307296 20.8162591891006095 -1.3599977021240650
 27.0773634554427112 18.5039611719116905  0.6618285365583236
 25.6949509139748677 16.1909911790244720 -0.0846777551597983
 70.5184096025352147 13.6696894361849566  0.1304028856330804
 69.2321885710613003 11.2959260208961254 -0.7274126637158114
 10.9518962385457073  8.9266127500336516  1.3109530361363892
  9.6261768888776622  6.5728621526672475  0.4683748462963493
  8.2625365691591828  4.2423127833454028 -0.3787428171489650
  6.8792194672202305  1.9251516646408060  1.6049658100794988
 33.9918872103826502 25.4609889709702948 -0.7120497857648398
 32.6136511420974315 23.1405155815550749 -1.5996790440328303
 31.2346552746434440 20.8188332556450462  0.3541244648690947
 29.8542195526268195 18.5047635821600203 -0.5124149564710884
 16.2469962351773454 13.7220718986324570 -0.7639888225363120
 14.9584862447976796 11.3477840793944527  1.2137293506283380
 13.6651076499110147  8.9744329720496054  0.3467701600098939
 12.3498964870644610  6.6079822597771454 -0.5253073593263209
 11.0022075041707659  4.2582094004560149  1.4399680035369578
  9.6337061950457503  1.9276129138497300  0.5577998771828414
 36.7509574856107264 25.4609889696081986 -1.7756738649279555
 35.3729163729375742 23.1443071741520896  0.1625688028060969
 18.9575671934314869 13.7742798394913848  1.1348280524245218
 17.6726593087425385 11.3999693380796518  0.2775191618759246
 16.3766998889997843  9.0246696245957665 -0.5964696032421373
 15.0623182262696353  6.6509104202736919  1.3562776073155052
 13.7283462723011418  4.2866927700566428  0.4555358156839303
 12.3740318479522351  1.9389714384132299 -0.4512710525991429
 21.6665536040277615 13.8197284668630438  0.1860532867647826
 20.3856381468114911 11.4461903016524449 -0.6479941934692222
 19.0835186116013951  9.0702406697107030  1.3245835882195427
 17.7684718959123025  6.6919892995711070  0.4256095335168665
 24.3732049155880013 13.8476147567093300 -0.7727279349767315
 23.0918587202663161 11.4765468436338853  1.2912325207392708
