288
Lattice="9.559407728649656 -9.087318898702386e-18 2.3918883122634095e-17 -9.087318898702381e-18 9.559407728649656 -2.3057458068536844e-17 1.2294658829237918e-16 -1.138024128057971e-16 50.98131465413065" Properties=species:S:1:pos:R:3 vacuum_gap_Ang=0.0 frame_index=0 pbc="T T T"
W       -0.00000000       0.00000000       0.79657277
W        1.59323462       1.59323462       2.38974643
W       -0.00000000       0.00000000       3.98289976
W        1.59323462       1.59323462       5.57600196
W       -0.00000000       0.00000000       7.16914360
W        1.59323462       1.59323462       8.76232548
W        0.00000000      -0.00000000      10.35552376
W        1.59323462       1.59323462      11.94873892
W       -0.00000000       0.00000000      13.54195714
W        1.59323462       1.59323462      15.13512368
W        0.00000000       0.00000000      16.72824473
W        1.59323462       1.59323462      18.32140203
W        0.00000000       0.00000000      19.91456148
W        1.59323462       1.59323462      21.50772305
W        0.00000000       0.00000000      23.10092020
W        1.59323462       1.59323462      24.69409247
W       -0.00000000       0.00000000      26.28722219
W        1.59323462       1.59323462      27.88039445
W       -0.00000000       0.00000000      29.47359160
W        1.59323462       1.59323462      31.06675317
W        0.00000000      -0.00000000      32.65991262
W        1.59323462       1.59323462      34.25306993
W        0.00000000      -0.00000000      35.84619098
W        1.59323462       1.59323462      37.43935752
W       -0.00000000      -0.00000000      39.03257573
W        1.59323462       1.59323462      40.62579090
W        0.00000000      -0.00000000      42.21898917
W        1.59323462       1.59323462      43.81217106
W        0.00000000      -0.00000000      45.40531270
W        1.59323462       1.59323462      46.99841490
W        0.00000000       0.00000000      48.59156822
W        1.59323462       1.59323462      50.18474189
W        0.00000000       3.18646924       0.79657277
W        1.59323462       4.77970386       2.38974643
W        0.00000000       3.18646924       3.98289976
W        1.59323462       4.77970386       5.57600196
W       -0.00000000       3.18646924       7.16914360
W        1.59323462       4.77970386       8.76232548
W       -0.00000000       3.18646924      10.35552376
W        1.59323462       4.77970386      11.94873892
W       -0.00000000       3.18646924      13.54195714
W        1.59323462       4.77970386      15.13512368
W        0.00000000       3.18646924      16.72824473
W        1.59323462       4.77970386      18.32140203
W       -0.00000000       3.18646924      19.91456148
W        1.59323462       4.77970386      21.50772305
W        0.00000000       3.18646924      23.10092020
W        1.59323462       4.77970386      24.69409247
W        0.00000000       3.18646924      26.28722219
W        1.59323462       4.77970386      27.88039445
W       -0.00000000       3.18646924      29.47359160
W        1.59323462       4.77970386      31.06675317
W        0.00000000       3.18646924      32.65991262
W        1.59323462       4.77970386      34.25306993
W       -0.00000000       3.18646924      35.84619098
W        1.59323462       4.77970386      37.43935752
W        0.00000000       3.18646924      39.03257573
W        1.59323462       4.77970386      40.62579090
W       -0.00000000       3.18646924      42.21898917
W        1.59323462       4.77970386      43.81217106
W       -0.00000000       3.18646924      45.40531270
W        1.59323462       4.77970386      46.99841490
W        0.00000000       3.18646924      48.59156822
W        1.59323462       4.77970386      50.18474189
W       -0.00000000       6.37293849       0.79657277
W        1.59323462       7.96617311       2.38974643
W        0.00000000       6.37293849       3.98289976
W        1.59323462       7.96617311       5.57600196
W       -0.00000000       6.37293849       7.16914360
W        1.59323462       7.96617311       8.76232548
W        0.00000000       6.37293849      10.35552376
W        1.59323462       7.96617311      11.94873892
W       -0.00000000       6.37293849      13.54195714
W        1.59323462       7.96617311      15.13512368
W        0.00000000       6.37293849      16.72824473
W        1.59323462       7.96617311      18.32140203
W        0.00000000       6.37293849      19.91456148
W        1.59323462       7.96617311      21.50772305
W       -0.00000000       6.37293849      23.10092020
W        1.59323462       7.96617311      24.69409247
W       -0.00000000       6.37293849      26.28722219
W        1.59323462       7.96617311      27.88039445
W        0.00000000       6.37293849      29.47359160
W        1.59323462       7.96617311      31.06675317
W        0.00000000       6.37293849      32.65991262
W        1.59323462       7.96617311      34.25306993
W        0.00000000       6.37293849      35.84619098
W        1.59323462       7.96617311      37.43935752
W        0.00000000       6.37293849      39.03257573
W        1.59323462       7.96617311      40.62579090
W        0.00000000       6.37293849      42.21898917
W        1.59323462       7.96617311      43.81217106
W       -0.00000000       6.37293849      45.40531270
W        1.59323462       7.96617311      46.99841490
W        0.00000000       6.37293849      48.59156822
W        1.59323462       7.96617311      50.18474189
W        3.18646924       0.00000000       0.79657277
W        4.77970386       1.59323462       2.38974643
W        3.18646924      -0.00000000       3.98289976
W        4.77970386       1.59323462       5.57600196
W        3.18646924       0.00000000       7.16914360
W        4.77970386       1.59323462       8.76232548
W        3.18646924       0.00000000      10.35552376
W        4.77970386       1.59323462      11.94873892
W        3.18646924       0.00000000      13.54195714
W        4.77970386       1.59323462      15.13512368
W        3.18646924       0.00000000      16.72824473
W        4.77970386       1.59323462      18.32140203
W        3.18646924      -0.00000000      19.91456148
W        4.77970386       1.59323462      21.50772305
W        3.18646924       0.00000000      23.10092020
W        4.77970386       1.59323462      24.69409247
W        3.18646924       0.00000000      26.28722219
W        4.77970386       1.59323462      27.88039445
W        3.18646924      -0.00000000      29.47359160
W        4.77970386       1.59323462      31.06675317
W        3.18646924       0.00000000      32.65991262
W        4.77970386       1.59323462      34.25306993
W        3.18646924       0.00000000      35.84619098
W        4.77970386       1.59323462      37.43935752
W        3.18646924       0.00000000      39.03257573
W        4.77970386       1.59323462      40.62579090
W        3.18646924      -0.00000000      42.21898917
W        4.77970386       1.59323462      43.81217106
W        3.18646924       0.00000000      45.40531270
W        4.77970386       1.59323462      46.99841490
W        3.18646924       0.00000000      48.59156822
W        4.77970386       1.59323462      50.18474189
W        3.18646924       3.18646924       0.79657277
W        4.77970386       4.77970386       2.38974643
W        3.18646924       3.18646924       3.98289976
W        4.77970386       4.77970386       5.57600196
W        3.18646924       3.18646924       7.16914360
W        4.77970386       4.77970386       8.76232548
W        3.18646924       3.18646924      10.35552376
W        4.77970386       4.77970386      11.94873892
W        3.18646924       3.18646924      13.54195714
W        4.77970386       4.77970386      15.13512368
W        3.18646924       3.18646924      16.72824473
W        4.77970386       4.77970386      18.32140203
W        3.18646924       3.18646924      19.91456148
W        4.77970386       4.77970386      21.50772305
W        3.18646924       3.18646924      23.10092020
W        4.77970386       4.77970386      24.69409247
W        3.18646924       3.18646924      26.28722219
W        4.77970386       4.77970386      27.88039445
W        3.18646924       3.18646924      29.47359160
W        4.77970386       4.77970386      31.06675317
W        3.18646924       3.18646924      32.65991262
W        4.77970386       4.77970386      34.25306993
W        3.18646924       3.18646924      35.84619098
W        4.77970386       4.77970386      37.43935752
W        3.18646924       3.18646924      39.03257573
W        4.77970386       4.77970386      40.62579090
W        3.18646924       3.18646924      42.21898917
W        4.77970386       4.77970386      43.81217106
W        3.18646924       3.18646924      45.40531270
W        4.77970386       4.77970386      46.99841490
W        3.18646924       3.18646924      48.59156822
W        4.77970386       4.77970386      50.18474189
W        3.18646924       6.37293849       0.79657277
W        4.77970386       7.96617311       2.38974643
W        3.18646924       6.37293849       3.98289976
W        4.77970386       7.96617311       5.57600196
W        3.18646924       6.37293849       7.16914360
W        4.77970386       7.96617311       8.76232548
W        3.18646924       6.37293849      10.35552376
W        4.77970386       7.96617311      11.94873892
W        3.18646924       6.37293849      13.54195714
W        4.77970386       7.96617311      15.13512368
W        3.18646924       6.37293849      16.72824473
W        4.77970386       7.96617311      18.32140203
W        3.18646924       6.37293849      19.91456148
W        4.77970386       7.96617311      21.50772305
W        3.18646924       6.37293849      23.10092020
W        4.77970386       7.96617311      24.69409247
W        3.18646924       6.37293849      26.28722219
W        4.77970386       7.96617311      27.88039445
W        3.18646924       6.37293849      29.47359160
W        4.77970386       7.96617311      31.06675317
W        3.18646924       6.37293849      32.65991262
W        4.77970386       7.96617311      34.25306993
W        3.18646924       6.37293849      35.84619098
W        4.77970386       7.96617311      37.43935752
W        3.18646924       6.37293849      39.03257573
W        4.77970386       7.96617311      40.62579090
W        3.18646924       6.37293849      42.21898917
W        4.77970386       7.96617311      43.81217106
W        3.18646924       6.37293849      45.40531270
W        4.77970386       7.96617311      46.99841490
W        3.18646924       6.37293849      48.59156822
W        4.77970386       7.96617311      50.18474189
W        6.37293849       0.00000000       0.79657277
W        7.96617311       1.59323462       2.38974643
W        6.37293849       0.00000000       3.98289976
W        7.96617311       1.59323462       5.57600196
W        6.37293849       0.00000000       7.16914360
W        7.96617311       1.59323462       8.76232548
W        6.37293849      -0.00000000      10.35552376
W        7.96617311       1.59323462      11.94873892
W        6.37293849       0.00000000      13.54195714
W        7.96617311       1.59323462      15.13512368
W        6.37293849      -0.00000000      16.72824473
W        7.96617311       1.59323462      18.32140203
W        6.37293849       0.00000000      19.91456148
W        7.96617311       1.59323462      21.50772305
W        6.37293849       0.00000000      23.10092020
W        7.96617311       1.59323462      24.69409247
W        6.37293849       0.00000000      26.28722219
W        7.96617311       1.59323462      27.88039445
W        6.37293849       0.00000000      29.47359160
W        7.96617311       1.59323462      31.06675317
W        6.37293849      -0.00000000      32.65991262
W        7.96617311       1.59323462      34.25306993
W        6.37293849       0.00000000      35.84619098
W        7.96617311       1.59323462      37.43935752
W        6.37293849      -0.00000000      39.03257573
W        7.96617311       1.59323462      40.62579090
W        6.37293849       0.00000000      42.21898917
W        7.96617311       1.59323462      43.81217106
W        6.37293849       0.00000000      45.40531270
W        7.96617311       1.59323462      46.99841490
W        6.37293849      -0.00000000      48.59156822
W        7.96617311       1.59323462      50.18474189
W        6.37293849       3.18646924       0.79657277
W        7.96617311       4.77970386       2.38974643
W        6.37293849       3.18646924       3.98289976
W        7.96617311       4.77970386       5.57600196
W        6.37293849       3.18646924       7.16914360
W        7.96617311       4.77970386       8.76232548
W        6.37293849       3.18646924      10.35552376
W        7.96617311       4.77970386      11.94873892
W        6.37293849       3.18646924      13.54195714
W        7.96617311       4.77970386      15.13512368
W        6.37293849       3.18646924      16.72824473
W        7.96617311       4.77970386      18.32140203
W        6.37293849       3.18646924      19.91456148
W        7.96617311       4.77970386      21.50772305
W        6.37293849       3.18646924      23.10092020
W        7.96617311       4.77970386      24.69409247
W        6.37293849       3.18646924      26.28722219
W        7.96617311       4.77970386      27.88039445
W        6.37293849       3.18646924      29.47359160
W        7.96617311       4.77970386      31.06675317
W        6.37293849       3.18646924      32.65991262
W        7.96617311       4.77970386      34.25306993
W        6.37293849       3.18646924      35.84619098
W        7.96617311       4.77970386      37.43935752
W        6.37293849       3.18646924      39.03257573
W        7.96617311       4.77970386      40.62579090
W        6.37293849       3.18646924      42.21898917
W        7.96617311       4.77970386      43.81217106
W        6.37293849       3.18646924      45.40531270
W        7.96617311       4.77970386      46.99841490
W        6.37293849       3.18646924      48.59156822
W        7.96617311       4.77970386      50.18474189
W        6.37293849       6.37293849       0.79657277
W        7.96617311       7.96617311       2.38974643
W        6.37293849       6.37293849       3.98289976
W        7.96617311       7.96617311       5.57600196
W        6.37293849       6.37293849       7.16914360
W        7.96617311       7.96617311       8.76232548
W        6.37293849       6.37293849      10.35552376
W        7.96617311       7.96617311      11.94873892
W        6.37293849       6.37293849      13.54195714
W        7.96617311       7.96617311      15.13512368
W        6.37293849       6.37293849      16.72824473
W        7.96617311       7.96617311      18.32140203
W        6.37293849       6.37293849      19.91456148
W        7.96617311       7.96617311      21.50772305
W        6.37293849       6.37293849      23.10092020
W        7.96617311       7.96617311      24.69409247
W        6.37293849       6.37293849      26.28722219
W        7.96617311       7.96617311      27.88039445
W        6.37293849       6.37293849      29.47359160
W        7.96617311       7.96617311      31.06675317
W        6.37293849       6.37293849      32.65991262
W        7.96617311       7.96617311      34.25306993
W        6.37293849       6.37293849      35.84619098
W        7.96617311       7.96617311      37.43935752
W        6.37293849       6.37293849      39.03257573
W        7.96617311       7.96617311      40.62579090
W        6.37293849       6.37293849      42.21898917
W        7.96617311       7.96617311      43.81217106
W        6.37293849       6.37293849      45.40531270
W        7.96617311       7.96617311      46.99841490
W        6.37293849       6.37293849      48.59156822
W        7.96617311       7.96617311      50.18474189
288
Lattice="9.559407728649656 -9.087318898702386e-18 2.3918883122634095e-17 -9.087318898702381e-18 9.559407728649656 -2.3057458068536844e-17 1.2294658829237918e-16 -1.138024128057971e-16 51.08387875669475" Properties=species:S:1:pos:R:3 vacuum_gap_Ang=0.10256410256410256 frame_index=1 pbc="T T T"
W       -0.00000000       0.00000000       0.79657277
W        1.59323462       1.59323462       2.38974643
W       -0.00000000       0.00000000       3.98289976
W        1.59323462       1.59323462       5.57600196
W       -0.00000000       0.00000000       7.16914360
W        1.59323462       1.59323462       8.76232548
W        0.00000000      -0.00000000      10.35552376
W        1.59323462       1.59323462      11.94873892
W       -0.00000000       0.00000000      13.54195714
W        1.59323462       1.59323462      15.13512368
W        0.00000000       0.00000000      16.72824473
W        1.59323462       1.59323462      18.32140203
W        0.00000000       0.00000000      19.91456148
W        1.59323462       1.59323462      21.50772305
W        0.00000000       0.00000000      23.10092020
W        1.59323462       1.59323462      24.69409247
W       -0.00000000       0.00000000      26.38978629
W        1.59323462       1.59323462      27.98295855
W       -0.00000000       0.00000000      29.57615570
W        1.59323462       1.59323462      31.16931727
W        0.00000000      -0.00000000      32.76247672
W        1.59323462       1.59323462      34.35563403
W        0.00000000      -0.00000000      35.94875508
W        1.59323462       1.59323462      37.54192162
W       -0.00000000      -0.00000000      39.13513983
W        1.59323462       1.59323462      40.72835500
W        0.00000000      -0.00000000      42.32155328
W        1.59323462       1.59323462      43.91473516
W        0.00000000      -0.00000000      45.50787680
W        1.59323462       1.59323462      47.10097900
W        0.00000000       0.00000000      48.69413232
W        1.59323462       1.59323462      50.28730599
W        0.00000000       3.18646924       0.79657277
W        1.59323462       4.77970386       2.38974643
W        0.00000000       3.18646924       3.98289976
W        1.59323462       4.77970386       5.57600196
W       -0.00000000       3.18646924       7.16914360
W        1.59323462       4.77970386       8.76232548
W       -0.00000000       3.18646924      10.35552376
W        1.59323462       4.77970386      11.94873892
W       -0.00000000       3.18646924      13.54195714
W        1.59323462       4.77970386      15.13512368
W        0.00000000       3.18646924      16.72824473
W        1.59323462       4.77970386      18.32140203
W       -0.00000000       3.18646924      19.91456148
W        1.59323462       4.77970386      21.50772305
W        0.00000000       3.18646924      23.10092020
W        1.59323462       4.77970386      24.69409247
W        0.00000000       3.18646924      26.38978629
W        1.59323462       4.77970386      27.98295855
W       -0.00000000       3.18646924      29.57615570
W        1.59323462       4.77970386      31.16931727
W        0.00000000       3.18646924      32.76247672
W        1.59323462       4.77970386      34.35563403
W       -0.00000000       3.18646924      35.94875508
W        1.59323462       4.77970386      37.54192162
W        0.00000000       3.18646924      39.13513983
W        1.59323462       4.77970386      40.72835500
W       -0.00000000       3.18646924      42.32155328
W        1.59323462       4.77970386      43.91473516
W       -0.00000000       3.18646924      45.50787680
W        1.59323462       4.77970386      47.10097900
W        0.00000000       3.18646924      48.69413232
W        1.59323462       4.77970386      50.28730599
W       -0.00000000       6.37293849       0.79657277
W        1.59323462       7.96617311       2.38974643
W        0.00000000       6.37293849       3.98289976
W        1.59323462       7.96617311       5.57600196
W       -0.00000000       6.37293849       7.16914360
W        1.59323462       7.96617311       8.76232548
W        0.00000000       6.37293849      10.35552376
W        1.59323462       7.96617311      11.94873892
W       -0.00000000       6.37293849      13.54195714
W        1.59323462       7.96617311      15.13512368
W        0.00000000       6.37293849      16.72824473
W        1.59323462       7.96617311      18.32140203
W        0.00000000       6.37293849      19.91456148
W        1.59323462       7.96617311      21.50772305
W       -0.00000000       6.37293849      23.10092020
W        1.59323462       7.96617311      24.69409247
W       -0.00000000       6.37293849      26.38978629
W        1.59323462       7.96617311      27.98295855
W        0.00000000       6.37293849      29.57615570
W        1.59323462       7.96617311      31.16931727
W        0.00000000       6.37293849      32.76247672
W        1.59323462       7.96617311      34.35563403
W        0.00000000       6.37293849      35.94875508
W        1.59323462       7.96617311      37.54192162
W        0.00000000       6.37293849      39.13513983
W        1.59323462       7.96617311      40.72835500
W        0.00000000       6.37293849      42.32155328
W        1.59323462       7.96617311      43.91473516
W       -0.00000000       6.37293849      45.50787680
W        1.59323462       7.96617311      47.10097900
W        0.00000000       6.37293849      48.69413232
W        1.59323462       7.96617311      50.28730599
W        3.18646924       0.00000000       0.79657277
W        4.77970386       1.59323462       2.38974643
W        3.18646924      -0.00000000       3.98289976
W        4.77970386       1.59323462       5.57600196
W        3.18646924       0.00000000       7.16914360
W        4.77970386       1.59323462       8.76232548
W        3.18646924       0.00000000      10.35552376
W        4.77970386       1.59323462      11.94873892
W        3.18646924       0.00000000      13.54195714
W        4.77970386       1.59323462      15.13512368
W        3.18646924       0.00000000      16.72824473
W        4.77970386       1.59323462      18.32140203
W        3.18646924      -0.00000000      19.91456148
W        4.77970386       1.59323462      21.50772305
W        3.18646924       0.00000000      23.10092020
W        4.77970386       1.59323462      24.69409247
W        3.18646924       0.00000000      26.38978629
W        4.77970386       1.59323462      27.98295855
W        3.18646924      -0.00000000      29.57615570
W        4.77970386       1.59323462      31.16931727
W        3.18646924       0.00000000      32.76247672
W        4.77970386       1.59323462      34.35563403
W        3.18646924       0.00000000      35.94875508
W        4.77970386       1.59323462      37.54192162
W        3.18646924       0.00000000      39.13513983
W        4.77970386       1.59323462      40.72835500
W        3.18646924      -0.00000000      42.32155328
W        4.77970386       1.59323462      43.91473516
W        3.18646924       0.00000000      45.50787680
W        4.77970386       1.59323462      47.10097900
W        3.18646924       0.00000000      48.69413232
W        4.77970386       1.59323462      50.28730599
W        3.18646924       3.18646924       0.79657277
W        4.77970386       4.77970386       2.38974643
W        3.18646924       3.18646924       3.98289976
W        4.77970386       4.77970386       5.57600196
W        3.18646924       3.18646924       7.16914360
W        4.77970386       4.77970386       8.76232548
W        3.18646924       3.18646924      10.35552376
W        4.77970386       4.77970386      11.94873892
W        3.18646924       3.18646924      13.54195714
W        4.77970386       4.77970386      15.13512368
W        3.18646924       3.18646924      16.72824473
W        4.77970386       4.77970386      18.32140203
W        3.18646924       3.18646924      19.91456148
W        4.77970386       4.77970386      21.50772305
W        3.18646924       3.18646924      23.10092020
W        4.77970386       4.77970386      24.69409247
W        3.18646924       3.18646924      26.38978629
W        4.77970386       4.77970386      27.98295855
W        3.18646924       3.18646924      29.57615570
W        4.77970386       4.77970386      31.16931727
W        3.18646924       3.18646924      32.76247672
W        4.77970386       4.77970386      34.35563403
W        3.18646924       3.18646924      35.94875508
W        4.77970386       4.77970386      37.54192162
W        3.18646924       3.18646924      39.13513983
W        4.77970386       4.77970386      40.72835500
W        3.18646924       3.18646924      42.32155328
W        4.77970386       4.77970386      43.91473516
W        3.18646924       3.18646924      45.50787680
W        4.77970386       4.77970386      47.10097900
W        3.18646924       3.18646924      48.69413232
W        4.77970386       4.77970386      50.28730599
W        3.18646924       6.37293849       0.79657277
W        4.77970386       7.96617311       2.38974643
W        3.18646924       6.37293849       3.98289976
W        4.77970386       7.96617311       5.57600196
W        3.18646924       6.37293849       7.16914360
W        4.77970386       7.96617311       8.76232548
W        3.18646924       6.37293849      10.35552376
W        4.77970386       7.96617311      11.94873892
W        3.18646924       6.37293849      13.54195714
W        4.77970386       7.96617311      15.13512368
W        3.18646924       6.37293849      16.72824473
W        4.77970386       7.96617311      18.32140203
W        3.18646924       6.37293849      19.91456148
W        4.77970386       7.96617311      21.50772305
W        3.18646924       6.37293849      23.10092020
W        4.77970386       7.96617311      24.69409247
W        3.18646924       6.37293849      26.38978629
W        4.77970386       7.96617311      27.98295855
W        3.18646924       6.37293849      29.57615570
W        4.77970386       7.96617311      31.16931727
W        3.18646924       6.37293849      32.76247672
W        4.77970386       7.96617311      34.35563403
W        3.18646924       6.37293849      35.94875508
W        4.77970386       7.96617311      37.54192162
W        3.18646924       6.37293849      39.13513983
W        4.77970386       7.96617311      40.72835500
W        3.18646924       6.37293849      42.32155328
W        4.77970386       7.96617311      43.91473516
W        3.18646924       6.37293849      45.50787680
W        4.77970386       7.96617311      47.10097900
W        3.18646924       6.37293849      48.69413232
W        4.77970386       7.96617311      50.28730599
W        6.37293849       0.00000000       0.79657277
W        7.96617311       1.59323462       2.38974643
W        6.37293849       0.00000000       3.98289976
W        7.96617311       1.59323462       5.57600196
W        6.37293849       0.00000000       7.16914360
W        7.96617311       1.59323462       8.76232548
W        6.37293849      -0.00000000      10.35552376
W        7.96617311       1.59323462      11.94873892
W        6.37293849       0.00000000      13.54195714
W        7.96617311       1.59323462      15.13512368
W        6.37293849      -0.00000000      16.72824473
W        7.96617311       1.59323462      18.32140203
W        6.37293849       0.00000000      19.91456148
W        7.96617311       1.59323462      21.50772305
W        6.37293849       0.00000000      23.10092020
W        7.96617311       1.59323462      24.69409247
W        6.37293849       0.00000000      26.38978629
W        7.96617311       1.59323462      27.98295855
W        6.37293849       0.00000000      29.57615570
W        7.96617311       1.59323462      31.16931727
W        6.37293849      -0.00000000      32.76247672
W        7.96617311       1.59323462      34.35563403
W        6.37293849       0.00000000      35.94875508
W        7.96617311       1.59323462      37.54192162
W        6.37293849      -0.00000000      39.13513983
W        7.96617311       1.59323462      40.72835500
W        6.37293849       0.00000000      42.32155328
W        7.96617311       1.59323462      43.91473516
W        6.37293849       0.00000000      45.50787680
W        7.96617311       1.59323462      47.10097900
W        6.37293849      -0.00000000      48.69413232
W        7.96617311       1.59323462      50.28730599
W        6.37293849       3.18646924       0.79657277
W        7.96617311       4.77970386       2.38974643
W        6.37293849       3.18646924       3.98289976
W        7.96617311       4.77970386       5.57600196
W        6.37293849       3.18646924       7.16914360
W        7.96617311       4.77970386       8.76232548
W        6.37293849       3.18646924      10.35552376
W        7.96617311       4.77970386      11.94873892
W        6.37293849       3.18646924      13.54195714
W        7.96617311       4.77970386      15.13512368
W        6.37293849       3.18646924      16.72824473
W        7.96617311       4.77970386      18.32140203
W        6.37293849       3.18646924      19.91456148
W        7.96617311       4.77970386      21.50772305
W        6.37293849       3.18646924      23.10092020
W        7.96617311       4.77970386      24.69409247
W        6.37293849       3.18646924      26.38978629
W        7.96617311       4.77970386      27.98295855
W        6.37293849       3.18646924      29.57615570
W        7.96617311       4.77970386      31.16931727
W        6.37293849       3.18646924      32.76247672
W        7.96617311       4.77970386      34.35563403
W        6.37293849       3.18646924      35.94875508
W        7.96617311       4.77970386      37.54192162
W        6.37293849       3.18646924      39.13513983
W        7.96617311       4.77970386      40.72835500
W        6.37293849       3.18646924      42.32155328
W        7.96617311       4.77970386      43.91473516
W        6.37293849       3.18646924      45.50787680
W        7.96617311       4.77970386      47.10097900
W        6.37293849       3.18646924      48.69413232
W        7.96617311       4.77970386      50.28730599
W        6.37293849       6.37293849       0.79657277
W        7.96617311       7.96617311       2.38974643
W        6.37293849       6.37293849       3.98289976
W        7.96617311       7.96617311       5.57600196
W        6.37293849       6.37293849       7.16914360
W        7.96617311       7.96617311       8.76232548
W        6.37293849       6.37293849      10.35552376
W        7.96617311       7.96617311      11.94873892
W        6.37293849       6.37293849      13.54195714
W        7.96617311       7.96617311      15.13512368
W        6.37293849       6.37293849      16.72824473
W        7.96617311       7.96617311      18.32140203
W        6.37293849       6.37293849      19.91456148
W        7.96617311       7.96617311      21.50772305
W        6.37293849       6.37293849      23.10092020
W        7.96617311       7.96617311      24.69409247
W        6.37293849       6.37293849      26.38978629
W        7.96617311       7.96617311      27.98295855
W        6.37293849       6.37293849      29.57615570
W        7.96617311       7.96617311      31.16931727
W        6.37293849       6.37293849      32.76247672
W        7.96617311       7.96617311      34.35563403
W        6.37293849       6.37293849      35.94875508
W        7.96617311       7.96617311      37.54192162
W        6.37293849       6.37293849      39.13513983
W        7.96617311       7.96617311      40.72835500
W        6.37293849       6.37293849      42.32155328
W        7.96617311       7.96617311      43.91473516
W        6.37293849       6.37293849      45.50787680
W        7.96617311       7.96617311      47.10097900
W        6.37293849       6.37293849      48.69413232
W        7.96617311       7.96617311      50.28730599
288
Lattice="9.559407728649656 -9.087318898702386e-18 2.3918883122634095e-17 -9.087318898702381e-18 9.559407728649656 -2.3057458068536844e-17 1.2294658829237918e-16 -1.138024128057971e-16 51.186442859258854" Properties=species:S:1:pos:R:3 vacuum_gap_Ang=0.20512820512820512 frame_index=2 pbc="T T T"
W       -0.00000000       0.00000000       0.79657277
W        1.59323462       1.59323462       2.38974643
W       -0.00000000       0.00000000       3.98289976
W        1.59323462       1.59323462       5.57600196
W       -0.00000000       0.00000000       7.16914360
W        1.59323462       1.59323462       8.76232548
W        0.00000000      -0.00000000      10.35552376
W        1.59323462       1.59323462      11.94873892
W       -0.00000000       0.00000000      13.54195714
W        1.59323462       1.59323462      15.13512368
W        0.00000000       0.00000000      16.72824473
W        1.59323462       1.59323462      18.32140203
W        0.00000000       0.00000000      19.91456148
W        1.59323462       1.59323462      21.50772305
W        0.00000000       0.00000000      23.10092020
W        1.59323462       1.59323462      24.69409247
W       -0.00000000       0.00000000      26.49235039
W        1.59323462       1.59323462      28.08552265
W       -0.00000000       0.00000000      29.67871980
W        1.59323462       1.59323462      31.27188138
W        0.00000000      -0.00000000      32.86504083
W        1.59323462       1.59323462      34.45819813
W        0.00000000      -0.00000000      36.05131918
W        1.59323462       1.59323462      37.64448572
W       -0.00000000      -0.00000000      39.23770394
W        1.59323462       1.59323462      40.83091910
W        0.00000000      -0.00000000      42.42411738
W        1.59323462       1.59323462      44.01729926
W        0.00000000      -0.00000000      45.61044090
W        1.59323462       1.59323462      47.20354310
W        0.00000000       0.00000000      48.79669643
W        1.59323462       1.59323462      50.38987009
W        0.00000000       3.18646924       0.79657277
W        1.59323462       4.77970386       2.38974643
W        0.00000000       3.18646924       3.98289976
W        1.59323462       4.77970386       5.57600196
W       -0.00000000       3.18646924       7.16914360
W        1.59323462       4.77970386       8.76232548
W       -0.00000000       3.18646924      10.35552376
W        1.59323462       4.77970386      11.94873892
W       -0.00000000       3.18646924      13.54195714
W        1.59323462       4.77970386      15.13512368
W        0.00000000       3.18646924      16.72824473
W        1.59323462       4.77970386      18.32140203
W       -0.00000000       3.18646924      19.91456148
W        1.59323462       4.77970386      21.50772305
W        0.00000000       3.18646924      23.10092020
W        1.59323462       4.77970386      24.69409247
W        0.00000000       3.18646924      26.49235039
W        1.59323462       4.77970386      28.08552265
W       -0.00000000       3.18646924      29.67871980
W        1.59323462       4.77970386      31.27188138
W        0.00000000       3.18646924      32.86504083
W        1.59323462       4.77970386      34.45819813
W       -0.00000000       3.18646924      36.05131918
W        1.59323462       4.77970386      37.64448572
W        0.00000000       3.18646924      39.23770394
W        1.59323462       4.77970386      40.83091910
W       -0.00000000       3.18646924      42.42411738
W        1.59323462       4.77970386      44.01729926
W       -0.00000000       3.18646924      45.61044090
W        1.59323462       4.77970386      47.20354310
W        0.00000000       3.18646924      48.79669643
W        1.59323462       4.77970386      50.38987009
W       -0.00000000       6.37293849       0.79657277
W        1.59323462       7.96617311       2.38974643
W        0.00000000       6.37293849       3.98289976
W        1.59323462       7.96617311       5.57600196
W       -0.00000000       6.37293849       7.16914360
W        1.59323462       7.96617311       8.76232548
W        0.00000000       6.37293849      10.35552376
W        1.59323462       7.96617311      11.94873892
W       -0.00000000       6.37293849      13.54195714
W        1.59323462       7.96617311      15.13512368
W        0.00000000       6.37293849      16.72824473
W        1.59323462       7.96617311      18.32140203
W        0.00000000       6.37293849      19.91456148
W        1.59323462       7.96617311      21.50772305
W       -0.00000000       6.37293849      23.10092020
W        1.59323462       7.96617311      24.69409247
W       -0.00000000       6.37293849      26.49235039
W        1.59323462       7.96617311      28.08552265
W        0.00000000       6.37293849      29.67871980
W        1.59323462       7.96617311      31.27188138
W        0.00000000       6.37293849      32.86504083
W        1.59323462       7.96617311      34.45819813
W        0.00000000       6.37293849      36.05131918
W        1.59323462       7.96617311      37.64448572
W        0.00000000       6.37293849      39.23770394
W        1.59323462       7.96617311      40.83091910
W        0.00000000       6.37293849      42.42411738
W        1.59323462       7.96617311      44.01729926
W       -0.00000000       6.37293849      45.61044090
W        1.59323462       7.96617311      47.20354310
W        0.00000000       6.37293849      48.79669643
W        1.59323462       7.96617311      50.38987009
W        3.18646924       0.00000000       0.79657277
W        4.77970386       1.59323462       2.38974643
W        3.18646924      -0.00000000       3.98289976
W        4.77970386       1.59323462       5.57600196
W        3.18646924       0.00000000       7.16914360
W        4.77970386       1.59323462       8.76232548
W        3.18646924       0.00000000      10.35552376
W        4.77970386       1.59323462      11.94873892
W        3.18646924       0.00000000      13.54195714
W        4.77970386       1.59323462      15.13512368
W        3.18646924       0.00000000      16.72824473
W        4.77970386       1.59323462      18.32140203
W        3.18646924      -0.00000000      19.91456148
W        4.77970386       1.59323462      21.50772305
W        3.18646924       0.00000000      23.10092020
W        4.77970386       1.59323462      24.69409247
W        3.18646924       0.00000000      26.49235039
W        4.77970386       1.59323462      28.08552265
W        3.18646924      -0.00000000      29.67871980
W        4.77970386       1.59323462      31.27188138
W        3.18646924       0.00000000      32.86504083
W        4.77970386       1.59323462      34.45819813
W        3.18646924       0.00000000      36.05131918
W        4.77970386       1.59323462      37.64448572
W        3.18646924       0.00000000      39.23770394
W        4.77970386       1.59323462      40.83091910
W        3.18646924      -0.00000000      42.42411738
W        4.77970386       1.59323462      44.01729926
W        3.18646924       0.00000000      45.61044090
W        4.77970386       1.59323462      47.20354310
W        3.18646924       0.00000000      48.79669643
W        4.77970386       1.59323462      50.38987009
W        3.18646924       3.18646924       0.79657277
W        4.77970386       4.77970386       2.38974643
W        3.18646924       3.18646924       3.98289976
W        4.77970386       4.77970386       5.57600196
W        3.18646924       3.18646924       7.16914360
W        4.77970386       4.77970386       8.76232548
W        3.18646924       3.18646924      10.35552376
W        4.77970386       4.77970386      11.94873892
W        3.18646924       3.18646924      13.54195714
W        4.77970386       4.77970386      15.13512368
W        3.18646924       3.18646924      16.72824473
W        4.77970386       4.77970386      18.32140203
W        3.18646924       3.18646924      19.91456148
W        4.77970386       4.77970386      21.50772305
W        3.18646924       3.18646924      23.10092020
W        4.77970386       4.77970386      24.69409247
W        3.18646924       3.18646924      26.49235039
W        4.77970386       4.77970386      28.08552265
W        3.18646924       3.18646924      29.67871980
W        4.77970386       4.77970386      31.27188138
W        3.18646924       3.18646924      32.86504083
W        4.77970386       4.77970386      34.45819813
W        3.18646924       3.18646924      36.05131918
W        4.77970386       4.77970386      37.64448572
W        3.18646924       3.18646924      39.23770394
W        4.77970386       4.77970386      40.83091910
W        3.18646924       3.18646924      42.42411738
W        4.77970386       4.77970386      44.01729926
W        3.18646924       3.18646924      45.61044090
W        4.77970386       4.77970386      47.20354310
W        3.18646924       3.18646924      48.79669643
W        4.77970386       4.77970386      50.38987009
W        3.18646924       6.37293849       0.79657277
W        4.77970386       7.96617311       2.38974643
W        3.18646924       6.37293849       3.98289976
W        4.77970386       7.96617311       5.57600196
W        3.18646924       6.37293849       7.16914360
W        4.77970386       7.96617311       8.76232548
W        3.18646924       6.37293849      10.35552376
W        4.77970386       7.96617311      11.94873892
W        3.18646924       6.37293849      13.54195714
W        4.77970386       7.96617311      15.13512368
W        3.18646924       6.37293849      16.72824473
W        4.77970386       7.96617311      18.32140203
W        3.18646924       6.37293849      19.91456148
W        4.77970386       7.96617311      21.50772305
W        3.18646924       6.37293849      23.10092020
W        4.77970386       7.96617311      24.69409247
W        3.18646924       6.37293849      26.49235039
W        4.77970386       7.96617311      28.08552265
W        3.18646924       6.37293849      29.67871980
W        4.77970386       7.96617311      31.27188138
W        3.18646924       6.37293849      32.86504083
W        4.77970386       7.96617311      34.45819813
W        3.18646924       6.37293849      36.05131918
W        4.77970386       7.96617311      37.64448572
W        3.18646924       6.37293849      39.23770394
W        4.77970386       7.96617311      40.83091910
W        3.18646924       6.37293849      42.42411738
W        4.77970386       7.96617311      44.01729926
W        3.18646924       6.37293849      45.61044090
W        4.77970386       7.96617311      47.20354310
W        3.18646924       6.37293849      48.79669643
W        4.77970386       7.96617311      50.38987009
W        6.37293849       0.00000000       0.79657277
W        7.96617311       1.59323462       2.38974643
W        6.37293849       0.00000000       3.98289976
W        7.96617311       1.59323462       5.57600196
W        6.37293849       0.00000000       7.16914360
W        7.96617311       1.59323462       8.76232548
W        6.37293849      -0.00000000      10.35552376
W        7.96617311       1.59323462      11.94873892
W        6.37293849       0.00000000      13.54195714
W        7.96617311       1.59323462      15.13512368
W        6.37293849      -0.00000000      16.72824473
W        7.96617311       1.59323462      18.32140203
W        6.37293849       0.00000000      19.91456148
W        7.96617311       1.59323462      21.50772305
W        6.37293849       0.00000000      23.10092020
W        7.96617311       1.59323462      24.69409247
W        6.37293849       0.00000000      26.49235039
W        7.96617311       1.59323462      28.08552265
W        6.37293849       0.00000000      29.67871980
W        7.96617311       1.59323462      31.27188138
W        6.37293849      -0.00000000      32.86504083
W        7.96617311       1.59323462      34.45819813
W        6.37293849       0.00000000      36.05131918
W        7.96617311       1.59323462      37.64448572
W        6.37293849      -0.00000000      39.23770394
W        7.96617311       1.59323462      40.83091910
W        6.37293849       0.00000000      42.42411738
W        7.96617311       1.59323462      44.01729926
W        6.37293849       0.00000000      45.61044090
W        7.96617311       1.59323462      47.20354310
W        6.37293849      -0.00000000      48.79669643
W        7.96617311       1.59323462      50.38987009
W        6.37293849       3.18646924       0.79657277
W        7.96617311       4.77970386       2.38974643
W        6.37293849       3.18646924       3.98289976
W        7.96617311       4.77970386       5.57600196
W        6.37293849       3.18646924       7.16914360
W        7.96617311       4.77970386       8.76232548
W        6.37293849       3.18646924      10.35552376
W        7.96617311       4.77970386      11.94873892
W        6.37293849       3.18646924      13.54195714
W        7.96617311       4.77970386      15.13512368
W        6.37293849       3.18646924      16.72824473
W        7.96617311       4.77970386      18.32140203
W        6.37293849       3.18646924      19.91456148
W        7.96617311       4.77970386      21.50772305
W        6.37293849       3.18646924      23.10092020
W        7.96617311       4.77970386      24.69409247
W        6.37293849       3.18646924      26.49235039
W        7.96617311       4.77970386      28.08552265
W        6.37293849       3.18646924      29.67871980
W        7.96617311       4.77970386      31.27188138
W        6.37293849       3.18646924      32.86504083
W        7.96617311       4.77970386      34.45819813
W        6.37293849       3.18646924      36.05131918
W        7.96617311       4.77970386      37.64448572
W        6.37293849       3.18646924      39.23770394
W        7.96617311       4.77970386      40.83091910
W        6.37293849       3.18646924      42.42411738
W        7.96617311       4.77970386      44.01729926
W        6.37293849       3.18646924      45.61044090
W        7.96617311       4.77970386      47.20354310
W        6.37293849       3.18646924      48.79669643
W        7.96617311       4.77970386      50.38987009
W        6.37293849       6.37293849       0.79657277
W        7.96617311       7.96617311       2.38974643
W        6.37293849       6.37293849       3.98289976
W        7.96617311       7.96617311       5.57600196
W        6.37293849       6.37293849       7.16914360
W        7.96617311       7.96617311       8.76232548
W        6.37293849       6.37293849      10.35552376
W        7.96617311       7.96617311      11.94873892
W        6.37293849       6.37293849      13.54195714
W        7.96617311       7.96617311      15.13512368
W        6.37293849       6.37293849      16.72824473
W        7.96617311       7.96617311      18.32140203
W        6.37293849       6.37293849      19.91456148
W        7.96617311       7.96617311      21.50772305
W        6.37293849       6.37293849      23.10092020
W        7.96617311       7.96617311      24.69409247
W        6.37293849       6.37293849      26.49235039
W        7.96617311       7.96617311      28.08552265
W        6.37293849       6.37293849      29.67871980
W        7.96617311       7.96617311      31.27188138
W        6.37293849       6.37293849      32.86504083
W        7.96617311       7.96617311      34.45819813
W        6.37293849       6.37293849      36.05131918
W        7.96617311       7.96617311      37.64448572
W        6.37293849       6.37293849      39.23770394
W        7.96617311       7.96617311      40.83091910
W        6.37293849       6.37293849      42.42411738
W        7.96617311       7.96617311      44.01729926
W        6.37293849       6.37293849      45.61044090
W        7.96617311       7.96617311      47.20354310
W        6.37293849       6.37293849      48.79669643
W        7.96617311       7.96617311      50.38987009
288
Lattice="9.559407728649656 -9.087318898702386e-18 2.3918883122634095e-17 -9.087318898702381e-18 9.559407728649656 -2.3057458068536844e-17 1.2294658829237918e-16 -1.138024128057971e-16 51.289006961822956" Properties=species:S:1:pos:R:3 vacuum_gap_Ang=0.3076923076923077 frame_index=3 pbc="T T T"
W       -0.00000000       0.00000000       0.79657277
W        1.59323462       1.59323462       2.38974643
W       -0.00000000       0.00000000       3.98289976
W        1.59323462       1.59323462       5.57600196
W       -0.00000000       0.00000000       7.16914360
W        1.59323462       1.59323462       8.76232548
W        0.00000000      -0.00000000      10.35552376
W        1.59323462       1.59323462      11.94873892
W       -0.00000000       0.00000000      13.54195714
W        1.59323462       1.59323462      15.13512368
W        0.00000000       0.00000000      16.72824473
W        1.59323462       1.59323462      18.32140203
W        0.00000000       0.00000000      19.91456148
W        1.59323462       1.59323462      21.50772305
W        0.00000000       0.00000000      23.10092020
W        1.59323462       1.59323462      24.69409247
W       -0.00000000       0.00000000      26.59491450
W        1.59323462       1.59323462      28.18808676
W       -0.00000000       0.00000000      29.78128391
W        1.59323462       1.59323462      31.37444548
W        0.00000000      -0.00000000      32.96760493
W        1.59323462       1.59323462      34.56076223
W        0.00000000      -0.00000000      36.15388328
W        1.59323462       1.59323462      37.74704982
W       -0.00000000      -0.00000000      39.34026804
W        1.59323462       1.59323462      40.93348320
W        0.00000000      -0.00000000      42.52668148
W        1.59323462       1.59323462      44.11986336
W        0.00000000      -0.00000000      45.71300500
W        1.59323462       1.59323462      47.30610720
W        0.00000000       0.00000000      48.89926053
W        1.59323462       1.59323462      50.49243419
W        0.00000000       3.18646924       0.79657277
W        1.59323462       4.77970386       2.38974643
W        0.00000000       3.18646924       3.98289976
W        1.59323462       4.77970386       5.57600196
W       -0.00000000       3.18646924       7.16914360
W        1.59323462       4.77970386       8.76232548
W       -0.00000000       3.18646924      10.35552376
W        1.59323462       4.77970386      11.94873892
W       -0.00000000       3.18646924      13.54195714
W        1.59323462       4.77970386      15.13512368
W        0.00000000       3.18646924      16.72824473
W        1.59323462       4.77970386      18.32140203
W       -0.00000000       3.18646924      19.91456148
W        1.59323462       4.77970386      21.50772305
W        0.00000000       3.18646924      23.10092020
W        1.59323462       4.77970386      24.69409247
W        0.00000000       3.18646924      26.59491450
W        1.59323462       4.77970386      28.18808676
W       -0.00000000       3.18646924      29.78128391
W        1.59323462       4.77970386      31.37444548
W        0.00000000       3.18646924      32.96760493
W        1.59323462       4.77970386      34.56076223
W       -0.00000000       3.18646924      36.15388328
W        1.59323462       4.77970386      37.74704982
W        0.00000000       3.18646924      39.34026804
W        1.59323462       4.77970386      40.93348320
W       -0.00000000       3.18646924      42.52668148
W        1.59323462       4.77970386      44.11986336
W       -0.00000000       3.18646924      45.71300500
W        1.59323462       4.77970386      47.30610720
W        0.00000000       3.18646924      48.89926053
W        1.59323462       4.77970386      50.49243419
W       -0.00000000       6.37293849       0.79657277
W        1.59323462       7.96617311       2.38974643
W        0.00000000       6.37293849       3.98289976
W        1.59323462       7.96617311       5.57600196
W       -0.00000000       6.37293849       7.16914360
W        1.59323462       7.96617311       8.76232548
W        0.00000000       6.37293849      10.35552376
W        1.59323462       7.96617311      11.94873892
W       -0.00000000       6.37293849      13.54195714
W        1.59323462       7.96617311      15.13512368
W        0.00000000       6.37293849      16.72824473
W        1.59323462       7.96617311      18.32140203
W        0.00000000       6.37293849      19.91456148
W        1.59323462       7.96617311      21.50772305
W       -0.00000000       6.37293849      23.10092020
W        1.59323462       7.96617311      24.69409247
W       -0.00000000       6.37293849      26.59491450
W        1.59323462       7.96617311      28.18808676
W        0.00000000       6.37293849      29.78128391
W        1.59323462       7.96617311      31.37444548
W        0.00000000       6.37293849      32.96760493
W        1.59323462       7.96617311      34.56076223
W        0.00000000       6.37293849      36.15388328
W        1.59323462       7.96617311      37.74704982
W        0.00000000       6.37293849      39.34026804
W        1.59323462       7.96617311      40.93348320
W        0.00000000       6.37293849      42.52668148
W        1.59323462       7.96617311      44.11986336
W       -0.00000000       6.37293849      45.71300500
W        1.59323462       7.96617311      47.30610720
W        0.00000000       6.37293849      48.89926053
W        1.59323462       7.96617311      50.49243419
W        3.18646924       0.00000000       0.79657277
W        4.77970386       1.59323462       2.38974643
W        3.18646924      -0.00000000       3.98289976
W        4.77970386       1.59323462       5.57600196
W        3.18646924       0.00000000       7.16914360
W        4.77970386       1.59323462       8.76232548
W        3.18646924       0.00000000      10.35552376
W        4.77970386       1.59323462      11.94873892
W        3.18646924       0.00000000      13.54195714
W        4.77970386       1.59323462      15.13512368
W        3.18646924       0.00000000      16.72824473
W        4.77970386       1.59323462      18.32140203
W        3.18646924      -0.00000000      19.91456148
W        4.77970386       1.59323462      21.50772305
W        3.18646924       0.00000000      23.10092020
W        4.77970386       1.59323462      24.69409247
W        3.18646924       0.00000000      26.59491450
W        4.77970386       1.59323462      28.18808676
W        3.18646924      -0.00000000      29.78128391
W        4.77970386       1.59323462      31.37444548
W        3.18646924       0.00000000      32.96760493
W        4.77970386       1.59323462      34.56076223
W        3.18646924       0.00000000      36.15388328
W        4.77970386       1.59323462      37.74704982
W        3.18646924       0.00000000      39.34026804
W        4.77970386       1.59323462      40.93348320
W        3.18646924      -0.00000000      42.52668148
W        4.77970386       1.59323462      44.11986336
W        3.18646924       0.00000000      45.71300500
W        4.77970386       1.59323462      47.30610720
W        3.18646924       0.00000000      48.89926053
W        4.77970386       1.59323462      50.49243419
W        3.18646924       3.18646924       0.79657277
W        4.77970386       4.77970386       2.38974643
W        3.18646924       3.18646924       3.98289976
W        4.77970386       4.77970386       5.57600196
W        3.18646924       3.18646924       7.16914360
W        4.77970386       4.77970386       8.76232548
W        3.18646924       3.18646924      10.35552376
W        4.77970386       4.77970386      11.94873892
W        3.18646924       3.18646924      13.54195714
W        4.77970386       4.77970386      15.13512368
W        3.18646924       3.18646924      16.72824473
W        4.77970386       4.77970386      18.32140203
W        3.18646924       3.18646924      19.91456148
W        4.77970386       4.77970386      21.50772305
W        3.18646924       3.18646924      23.10092020
W        4.77970386       4.77970386      24.69409247
W        3.18646924       3.18646924      26.59491450
W        4.77970386       4.77970386      28.18808676
W        3.18646924       3.18646924      29.78128391
W        4.77970386       4.77970386      31.37444548
W        3.18646924       3.18646924      32.96760493
W        4.77970386       4.77970386      34.56076223
W        3.18646924       3.18646924      36.15388328
W        4.77970386       4.77970386      37.74704982
W        3.18646924       3.18646924      39.34026804
W        4.77970386       4.77970386      40.93348320
W        3.18646924       3.18646924      42.52668148
W        4.77970386       4.77970386      44.11986336
W        3.18646924       3.18646924      45.71300500
W        4.77970386       4.77970386      47.30610720
W        3.18646924       3.18646924      48.89926053
W        4.77970386       4.77970386      50.49243419
W        3.18646924       6.37293849       0.79657277
W        4.77970386       7.96617311       2.38974643
W        3.18646924       6.37293849       3.98289976
W        4.77970386       7.96617311       5.57600196
W        3.18646924       6.37293849       7.16914360
W        4.77970386       7.96617311       8.76232548
W        3.18646924       6.37293849      10.35552376
W        4.77970386       7.96617311      11.94873892
W        3.18646924       6.37293849      13.54195714
W        4.77970386       7.96617311      15.13512368
W        3.18646924       6.37293849      16.72824473
W        4.77970386       7.96617311      18.32140203
W        3.18646924       6.37293849      19.91456148
W        4.77970386       7.96617311      21.50772305
W        3.18646924       6.37293849      23.10092020
W        4.77970386       7.96617311      24.69409247
W        3.18646924       6.37293849      26.59491450
W        4.77970386       7.96617311      28.18808676
W        3.18646924       6.37293849      29.78128391
W        4.77970386       7.96617311      31.37444548
W        3.18646924       6.37293849      32.96760493
W        4.77970386       7.96617311      34.56076223
W        3.18646924       6.37293849      36.15388328
W        4.77970386       7.96617311      37.74704982
W        3.18646924       6.37293849      39.34026804
W        4.77970386       7.96617311      40.93348320
W        3.18646924       6.37293849      42.52668148
W        4.77970386       7.96617311      44.11986336
W        3.18646924       6.37293849      45.71300500
W        4.77970386       7.96617311      47.30610720
W        3.18646924       6.37293849      48.89926053
W        4.77970386       7.96617311      50.49243419
W        6.37293849       0.00000000       0.79657277
W        7.96617311       1.59323462       2.38974643
W        6.37293849       0.00000000       3.98289976
W        7.96617311       1.59323462       5.57600196
W        6.37293849       0.00000000       7.16914360
W        7.96617311       1.59323462       8.76232548
W        6.37293849      -0.00000000      10.35552376
W        7.96617311       1.59323462      11.94873892
W        6.37293849       0.00000000      13.54195714
W        7.96617311       1.59323462      15.13512368
W        6.37293849      -0.00000000      16.72824473
W        7.96617311       1.59323462      18.32140203
W        6.37293849       0.00000000      19.91456148
W        7.96617311       1.59323462      21.50772305
W        6.37293849       0.00000000      23.10092020
W        7.96617311       1.59323462      24.69409247
W        6.37293849       0.00000000      26.59491450
W        7.96617311       1.59323462      28.18808676
W        6.37293849       0.00000000      29.78128391
W        7.96617311       1.59323462      31.37444548
W        6.37293849      -0.00000000      32.96760493
W        7.96617311       1.59323462      34.56076223
W        6.37293849       0.00000000      36.15388328
W        7.96617311       1.59323462      37.74704982
W        6.37293849      -0.00000000      39.34026804
W        7.96617311       1.59323462      40.93348320
W        6.37293849       0.00000000      42.52668148
W        7.96617311       1.59323462      44.11986336
W        6.37293849       0.00000000      45.71300500
W        7.96617311       1.59323462      47.30610720
W        6.37293849      -0.00000000      48.89926053
W        7.96617311       1.59323462      50.49243419
W        6.37293849       3.18646924       0.79657277
W        7.96617311       4.77970386       2.38974643
W        6.37293849       3.18646924       3.98289976
W        7.96617311       4.77970386       5.57600196
W        6.37293849       3.18646924       7.16914360
W        7.96617311       4.77970386       8.76232548
W        6.37293849       3.18646924      10.35552376
W        7.96617311       4.77970386      11.94873892
W        6.37293849       3.18646924      13.54195714
W        7.96617311       4.77970386      15.13512368
W        6.37293849       3.18646924      16.72824473
W        7.96617311       4.77970386      18.32140203
W        6.37293849       3.18646924      19.91456148
W        7.96617311       4.77970386      21.50772305
W        6.37293849       3.18646924      23.10092020
W        7.96617311       4.77970386      24.69409247
W        6.37293849       3.18646924      26.59491450
W        7.96617311       4.77970386      28.18808676
W        6.37293849       3.18646924      29.78128391
W        7.96617311       4.77970386      31.37444548
W        6.37293849       3.18646924      32.96760493
W        7.96617311       4.77970386      34.56076223
W        6.37293849       3.18646924      36.15388328
W        7.96617311       4.77970386      37.74704982
W        6.37293849       3.18646924      39.34026804
W        7.96617311       4.77970386      40.93348320
W        6.37293849       3.18646924      42.52668148
W        7.96617311       4.77970386      44.11986336
W        6.37293849       3.18646924      45.71300500
W        7.96617311       4.77970386      47.30610720
W        6.37293849       3.18646924      48.89926053
W        7.96617311       4.77970386      50.49243419
W        6.37293849       6.37293849       0.79657277
W        7.96617311       7.96617311       2.38974643
W        6.37293849       6.37293849       3.98289976
W        7.96617311       7.96617311       5.57600196
W        6.37293849       6.37293849       7.16914360
W        7.96617311       7.96617311       8.76232548
W        6.37293849       6.37293849      10.35552376
W        7.96617311       7.96617311      11.94873892
W        6.37293849       6.37293849      13.54195714
W        7.96617311       7.96617311      15.13512368
W        6.37293849       6.37293849      16.72824473
W        7.96617311       7.96617311      18.32140203
W        6.37293849       6.37293849      19.91456148
W        7.96617311       7.96617311      21.50772305
W        6.37293849       6.37293849      23.10092020
W        7.96617311       7.96617311      24.69409247
W        6.37293849       6.37293849      26.59491450
W        7.96617311       7.96617311      28.18808676
W        6.37293849       6.37293849      29.78128391
W        7.96617311       7.96617311      31.37444548
W        6.37293849       6.37293849      32.96760493
W        7.96617311       7.96617311      34.56076223
W        6.37293849       6.37293849      36.15388328
W        7.96617311       7.96617311      37.74704982
W        6.37293849       6.37293849      39.34026804
W        7.96617311       7.96617311      40.93348320
W        6.37293849       6.37293849      42.52668148
W        7.96617311       7.96617311      44.11986336
W        6.37293849       6.37293849      45.71300500
W        7.96617311       7.96617311      47.30610720
W        6.37293849       6.37293849      48.89926053
W        7.96617311       7.96617311      50.49243419
288
Lattice="9.559407728649656 -9.087318898702386e-18 2.3918883122634095e-17 -9.087318898702381e-18 9.559407728649656 -2.3057458068536844e-17 1.2294658829237918e-16 -1.138024128057971e-16 51.39157106438706" Properties=species:S:1:pos:R:3 vacuum_gap_Ang=0.41025641025641024 frame_index=4 pbc="T T T"
W       -0.00000000       0.00000000       0.79657277
W        1.59323462       1.59323462       2.38974643
W       -0.00000000       0.00000000       3.98289976
W        1.59323462       1.59323462       5.57600196
W       -0.00000000       0.00000000       7.16914360
W        1.59323462       1.59323462       8.76232548
W        0.00000000      -0.00000000      10.35552376
W        1.59323462       1.59323462      11.94873892
W       -0.00000000       0.00000000      13.54195714
W        1.59323462       1.59323462      15.13512368
W        0.00000000       0.00000000      16.72824473
W        1.59323462       1.59323462      18.32140203
W        0.00000000       0.00000000      19.91456148
W        1.59323462       1.59323462      21.50772305
W        0.00000000       0.00000000      23.10092020
W        1.59323462       1.59323462      24.69409247
W       -0.00000000       0.00000000      26.69747860
W        1.59323462       1.59323462      28.29065086
W       -0.00000000       0.00000000      29.88384801
W        1.59323462       1.59323462      31.47700958
W        0.00000000      -0.00000000      33.07016903
W        1.59323462       1.59323462      34.66332634
W        0.00000000      -0.00000000      36.25644739
W        1.59323462       1.59323462      37.84961393
W       -0.00000000      -0.00000000      39.44283214
W        1.59323462       1.59323462      41.03604731
W        0.00000000      -0.00000000      42.62924558
W        1.59323462       1.59323462      44.22242747
W        0.00000000      -0.00000000      45.81556911
W        1.59323462       1.59323462      47.40867131
W        0.00000000       0.00000000      49.00182463
W        1.59323462       1.59323462      50.59499830
W        0.00000000       3.18646924       0.79657277
W        1.59323462       4.77970386       2.38974643
W        0.00000000       3.18646924       3.98289976
W        1.59323462       4.77970386       5.57600196
W       -0.00000000       3.18646924       7.16914360
W        1.59323462       4.77970386       8.76232548
W       -0.00000000       3.18646924      10.35552376
W        1.59323462       4.77970386      11.94873892
W       -0.00000000       3.18646924      13.54195714
W        1.59323462       4.77970386      15.13512368
W        0.00000000       3.18646924      16.72824473
W        1.59323462       4.77970386      18.32140203
W       -0.00000000       3.18646924      19.91456148
W        1.59323462       4.77970386      21.50772305
W        0.00000000       3.18646924      23.10092020
W        1.59323462       4.77970386      24.69409247
W        0.00000000       3.18646924      26.69747860
W        1.59323462       4.77970386      28.29065086
W       -0.00000000       3.18646924      29.88384801
W        1.59323462       4.77970386      31.47700958
W        0.00000000       3.18646924      33.07016903
W        1.59323462       4.77970386      34.66332634
W       -0.00000000       3.18646924      36.25644739
W        1.59323462       4.77970386      37.84961393
W        0.00000000       3.18646924      39.44283214
W        1.59323462       4.77970386      41.03604731
W       -0.00000000       3.18646924      42.62924558
W        1.59323462       4.77970386      44.22242747
W       -0.00000000       3.18646924      45.81556911
W        1.59323462       4.77970386      47.40867131
W        0.00000000       3.18646924      49.00182463
W        1.59323462       4.77970386      50.59499830
W       -0.00000000       6.37293849       0.79657277
W        1.59323462       7.96617311       2.38974643
W        0.00000000       6.37293849       3.98289976
W        1.59323462       7.96617311       5.57600196
W       -0.00000000       6.37293849       7.16914360
W        1.59323462       7.96617311       8.76232548
W        0.00000000       6.37293849      10.35552376
W        1.59323462       7.96617311      11.94873892
W       -0.00000000       6.37293849      13.54195714
W        1.59323462       7.96617311      15.13512368
W        0.00000000       6.37293849      16.72824473
W        1.59323462       7.96617311      18.32140203
W        0.00000000       6.37293849      19.91456148
W        1.59323462       7.96617311      21.50772305
W       -0.00000000       6.37293849      23.10092020
W        1.59323462       7.96617311      24.69409247
W       -0.00000000       6.37293849      26.69747860
W        1.59323462       7.96617311      28.29065086
W        0.00000000       6.37293849      29.88384801
W        1.59323462       7.96617311      31.47700958
W        0.00000000       6.37293849      33.07016903
W        1.59323462       7.96617311      34.66332634
W        0.00000000       6.37293849      36.25644739
W        1.59323462       7.96617311      37.84961393
W        0.00000000       6.37293849      39.44283214
W        1.59323462       7.96617311      41.03604731
W        0.00000000       6.37293849      42.62924558
W        1.59323462       7.96617311      44.22242747
W       -0.00000000       6.37293849      45.81556911
W        1.59323462       7.96617311      47.40867131
W        0.00000000       6.37293849      49.00182463
W        1.59323462       7.96617311      50.59499830
W        3.18646924       0.00000000       0.79657277
W        4.77970386       1.59323462       2.38974643
W        3.18646924      -0.00000000       3.98289976
W        4.77970386       1.59323462       5.57600196
W        3.18646924       0.00000000       7.16914360
W        4.77970386       1.59323462       8.76232548
W        3.18646924       0.00000000      10.35552376
W        4.77970386       1.59323462      11.94873892
W        3.18646924       0.00000000      13.54195714
W        4.77970386       1.59323462      15.13512368
W        3.18646924       0.00000000      16.72824473
W        4.77970386       1.59323462      18.32140203
W        3.18646924      -0.00000000      19.91456148
W        4.77970386       1.59323462      21.50772305
W        3.18646924       0.00000000      23.10092020
W        4.77970386       1.59323462      24.69409247
W        3.18646924       0.00000000      26.69747860
W        4.77970386       1.59323462      28.29065086
W        3.18646924      -0.00000000      29.88384801
W        4.77970386       1.59323462      31.47700958
W        3.18646924       0.00000000      33.07016903
W        4.77970386       1.59323462      34.66332634
W        3.18646924       0.00000000      36.25644739
W        4.77970386       1.59323462      37.84961393
W        3.18646924       0.00000000      39.44283214
W        4.77970386       1.59323462      41.03604731
W        3.18646924      -0.00000000      42.62924558
W        4.77970386       1.59323462      44.22242747
W        3.18646924       0.00000000      45.81556911
W        4.77970386       1.59323462      47.40867131
W        3.18646924       0.00000000      49.00182463
W        4.77970386       1.59323462      50.59499830
W        3.18646924       3.18646924       0.79657277
W        4.77970386       4.77970386       2.38974643
W        3.18646924       3.18646924       3.98289976
W        4.77970386       4.77970386       5.57600196
W        3.18646924       3.18646924       7.16914360
W        4.77970386       4.77970386       8.76232548
W        3.18646924       3.18646924      10.35552376
W        4.77970386       4.77970386      11.94873892
W        3.18646924       3.18646924      13.54195714
W        4.77970386       4.77970386      15.13512368
W        3.18646924       3.18646924      16.72824473
W        4.77970386       4.77970386      18.32140203
W        3.18646924       3.18646924      19.91456148
W        4.77970386       4.77970386      21.50772305
W        3.18646924       3.18646924      23.10092020
W        4.77970386       4.77970386      24.69409247
W        3.18646924       3.18646924      26.69747860
W        4.77970386       4.77970386      28.29065086
W        3.18646924       3.18646924      29.88384801
W        4.77970386       4.77970386      31.47700958
W        3.18646924       3.18646924      33.07016903
W        4.77970386       4.77970386      34.66332634
W        3.18646924       3.18646924      36.25644739
W        4.77970386       4.77970386      37.84961393
W        3.18646924       3.18646924      39.44283214
W        4.77970386       4.77970386      41.03604731
W        3.18646924       3.18646924      42.62924558
W        4.77970386       4.77970386      44.22242747
W        3.18646924       3.18646924      45.81556911
W        4.77970386       4.77970386      47.40867131
W        3.18646924       3.18646924      49.00182463
W        4.77970386       4.77970386      50.59499830
W        3.18646924       6.37293849       0.79657277
W        4.77970386       7.96617311       2.38974643
W        3.18646924       6.37293849       3.98289976
W        4.77970386       7.96617311       5.57600196
W        3.18646924       6.37293849       7.16914360
W        4.77970386       7.96617311       8.76232548
W        3.18646924       6.37293849      10.35552376
W        4.77970386       7.96617311      11.94873892
W        3.18646924       6.37293849      13.54195714
W        4.77970386       7.96617311      15.13512368
W        3.18646924       6.37293849      16.72824473
W        4.77970386       7.96617311      18.32140203
W        3.18646924       6.37293849      19.91456148
W        4.77970386       7.96617311      21.50772305
W        3.18646924       6.37293849      23.10092020
W        4.77970386       7.96617311      24.69409247
W        3.18646924       6.37293849      26.69747860
W        4.77970386       7.96617311      28.29065086
W        3.18646924       6.37293849      29.88384801
W        4.77970386       7.96617311      31.47700958
W        3.18646924       6.37293849      33.07016903
W        4.77970386       7.96617311      34.66332634
W        3.18646924       6.37293849      36.25644739
W        4.77970386       7.96617311      37.84961393
W        3.18646924       6.37293849      39.44283214
W        4.77970386       7.96617311      41.03604731
W        3.18646924       6.37293849      42.62924558
W        4.77970386       7.96617311      44.22242747
W        3.18646924       6.37293849      45.81556911
W        4.77970386       7.96617311      47.40867131
W        3.18646924       6.37293849      49.00182463
W        4.77970386       7.96617311      50.59499830
W        6.37293849       0.00000000       0.79657277
W        7.96617311       1.59323462       2.38974643
W        6.37293849       0.00000000       3.98289976
W        7.96617311       1.59323462       5.57600196
W        6.37293849       0.00000000       7.16914360
W        7.96617311       1.59323462       8.76232548
W        6.37293849      -0.00000000      10.35552376
W        7.96617311       1.59323462      11.94873892
W        6.37293849       0.00000000      13.54195714
W        7.96617311       1.59323462      15.13512368
W        6.37293849      -0.00000000      16.72824473
W        7.96617311       1.59323462      18.32140203
W        6.37293849       0.00000000      19.91456148
W        7.96617311       1.59323462      21.50772305
W        6.37293849       0.00000000      23.10092020
W        7.96617311       1.59323462      24.69409247
W        6.37293849       0.00000000      26.69747860
W        7.96617311       1.59323462      28.29065086
W        6.37293849       0.00000000      29.88384801
W        7.96617311       1.59323462      31.47700958
W        6.37293849      -0.00000000      33.07016903
W        7.96617311       1.59323462      34.66332634
W        6.37293849       0.00000000      36.25644739
W        7.96617311       1.59323462      37.84961393
W        6.37293849      -0.00000000      39.44283214
W        7.96617311       1.59323462      41.03604731
W        6.37293849       0.00000000      42.62924558
W        7.96617311       1.59323462      44.22242747
W        6.37293849       0.00000000      45.81556911
W        7.96617311       1.59323462      47.40867131
W        6.37293849      -0.00000000      49.00182463
W        7.96617311       1.59323462      50.59499830
W        6.37293849       3.18646924       0.79657277
W        7.96617311       4.77970386       2.38974643
W        6.37293849       3.18646924       3.98289976
W        7.96617311       4.77970386       5.57600196
W        6.37293849       3.18646924       7.16914360
W        7.96617311       4.77970386       8.76232548
W        6.37293849       3.18646924      10.35552376
W        7.96617311       4.77970386      11.94873892
W        6.37293849       3.18646924      13.54195714
W        7.96617311       4.77970386      15.13512368
W        6.37293849       3.18646924      16.72824473
W        7.96617311       4.77970386      18.32140203
W        6.37293849       3.18646924      19.91456148
W        7.96617311       4.77970386      21.50772305
W        6.37293849       3.18646924      23.10092020
W        7.96617311       4.77970386      24.69409247
W        6.37293849       3.18646924      26.69747860
W        7.96617311       4.77970386      28.29065086
W        6.37293849       3.18646924      29.88384801
W        7.96617311       4.77970386      31.47700958
W        6.37293849       3.18646924      33.07016903
W        7.96617311       4.77970386      34.66332634
W        6.37293849       3.18646924      36.25644739
W        7.96617311       4.77970386      37.84961393
W        6.37293849       3.18646924      39.44283214
W        7.96617311       4.77970386      41.03604731
W        6.37293849       3.18646924      42.62924558
W        7.96617311       4.77970386      44.22242747
W        6.37293849       3.18646924      45.81556911
W        7.96617311       4.77970386      47.40867131
W        6.37293849       3.18646924      49.00182463
W        7.96617311       4.77970386      50.59499830
W        6.37293849       6.37293849       0.79657277
W        7.96617311       7.96617311       2.38974643
W        6.37293849       6.37293849       3.98289976
W        7.96617311       7.96617311       5.57600196
W        6.37293849       6.37293849       7.16914360
W        7.96617311       7.96617311       8.76232548
W        6.37293849       6.37293849      10.35552376
W        7.96617311       7.96617311      11.94873892
W        6.37293849       6.37293849      13.54195714
W        7.96617311       7.96617311      15.13512368
W        6.37293849       6.37293849      16.72824473
W        7.96617311       7.96617311      18.32140203
W        6.37293849       6.37293849      19.91456148
W        7.96617311       7.96617311      21.50772305
W        6.37293849       6.37293849      23.10092020
W        7.96617311       7.96617311      24.69409247
W        6.37293849       6.37293849      26.69747860
W        7.96617311       7.96617311      28.29065086
W        6.37293849       6.37293849      29.88384801
W        7.96617311       7.96617311      31.47700958
W        6.37293849       6.37293849      33.07016903
W        7.96617311       7.96617311      34.66332634
W        6.37293849       6.37293849      36.25644739
W        7.96617311       7.96617311      37.84961393
W        6.37293849       6.37293849      39.44283214
W        7.96617311       7.96617311      41.03604731
W        6.37293849       6.37293849      42.62924558
W        7.96617311       7.96617311      44.22242747
W        6.37293849       6.37293849      45.81556911
W        7.96617311       7.96617311      47.40867131
W        6.37293849       6.37293849      49.00182463
W        7.96617311       7.96617311      50.59499830
288
Lattice="9.559407728649656 -9.087318898702386e-18 2.3918883122634095e-17 -9.087318898702381e-18 9.559407728649656 -2.3057458068536844e-17 1.2294658829237918e-16 -1.138024128057971e-16 51.49413516695116" Properties=species:S:1:pos:R:3 vacuum_gap_Ang=0.5128205128205128 frame_index=5 pbc="T T T"
W       -0.00000000       0.00000000       0.79657277
W        1.59323462       1.59323462       2.38974643
W       -0.00000000       0.00000000       3.98289976
W        1.59323462       1.59323462       5.57600196
W       -0.00000000       0.00000000       7.16914360
W        1.59323462       1.59323462       8.76232548
W        0.00000000      -0.00000000      10.35552376
W        1.59323462       1.59323462      11.94873892
W       -0.00000000       0.00000000      13.54195714
W        1.59323462       1.59323462      15.13512368
W        0.00000000       0.00000000      16.72824473
W        1.59323462       1.59323462      18.32140203
W        0.00000000       0.00000000      19.91456148
W        1.59323462       1.59323462      21.50772305
W        0.00000000       0.00000000      23.10092020
W        1.59323462       1.59323462      24.69409247
W       -0.00000000       0.00000000      26.80004270
W        1.59323462       1.59323462      28.39321496
W       -0.00000000       0.00000000      29.98641211
W        1.59323462       1.59323462      31.57957368
W        0.00000000      -0.00000000      33.17273313
W        1.59323462       1.59323462      34.76589044
W        0.00000000      -0.00000000      36.35901149
W        1.59323462       1.59323462      37.95217803
W       -0.00000000      -0.00000000      39.54539624
W        1.59323462       1.59323462      41.13861141
W        0.00000000      -0.00000000      42.73180969
W        1.59323462       1.59323462      44.32499157
W        0.00000000      -0.00000000      45.91813321
W        1.59323462       1.59323462      47.51123541
W        0.00000000       0.00000000      49.10438873
W        1.59323462       1.59323462      50.69756240
W        0.00000000       3.18646924       0.79657277
W        1.59323462       4.77970386       2.38974643
W        0.00000000       3.18646924       3.98289976
W        1.59323462       4.77970386       5.57600196
W       -0.00000000       3.18646924       7.16914360
W        1.59323462       4.77970386       8.76232548
W       -0.00000000       3.18646924      10.35552376
W        1.59323462       4.77970386      11.94873892
W       -0.00000000       3.18646924      13.54195714
W        1.59323462       4.77970386      15.13512368
W        0.00000000       3.18646924      16.72824473
W        1.59323462       4.77970386      18.32140203
W       -0.00000000       3.18646924      19.91456148
W        1.59323462       4.77970386      21.50772305
W        0.00000000       3.18646924      23.10092020
W        1.59323462       4.77970386      24.69409247
W        0.00000000       3.18646924      26.80004270
W        1.59323462       4.77970386      28.39321496
W       -0.00000000       3.18646924      29.98641211
W        1.59323462       4.77970386      31.57957368
W        0.00000000       3.18646924      33.17273313
W        1.59323462       4.77970386      34.76589044
W       -0.00000000       3.18646924      36.35901149
W        1.59323462       4.77970386      37.95217803
W        0.00000000       3.18646924      39.54539624
W        1.59323462       4.77970386      41.13861141
W       -0.00000000       3.18646924      42.73180969
W        1.59323462       4.77970386      44.32499157
W       -0.00000000       3.18646924      45.91813321
W        1.59323462       4.77970386      47.51123541
W        0.00000000       3.18646924      49.10438873
W        1.59323462       4.77970386      50.69756240
W       -0.00000000       6.37293849       0.79657277
W        1.59323462       7.96617311       2.38974643
W        0.00000000       6.37293849       3.98289976
W        1.59323462       7.96617311       5.57600196
W       -0.00000000       6.37293849       7.16914360
W        1.59323462       7.96617311       8.76232548
W        0.00000000       6.37293849      10.35552376
W        1.59323462       7.96617311      11.94873892
W       -0.00000000       6.37293849      13.54195714
W        1.59323462       7.96617311      15.13512368
W        0.00000000       6.37293849      16.72824473
W        1.59323462       7.96617311      18.32140203
W        0.00000000       6.37293849      19.91456148
W        1.59323462       7.96617311      21.50772305
W       -0.00000000       6.37293849      23.10092020
W        1.59323462       7.96617311      24.69409247
W       -0.00000000       6.37293849      26.80004270
W        1.59323462       7.96617311      28.39321496
W        0.00000000       6.37293849      29.98641211
W        1.59323462       7.96617311      31.57957368
W        0.00000000       6.37293849      33.17273313
W        1.59323462       7.96617311      34.76589044
W        0.00000000       6.37293849      36.35901149
W        1.59323462       7.96617311      37.95217803
W        0.00000000       6.37293849      39.54539624
W        1.59323462       7.96617311      41.13861141
W        0.00000000       6.37293849      42.73180969
W        1.59323462       7.96617311      44.32499157
W       -0.00000000       6.37293849      45.91813321
W        1.59323462       7.96617311      47.51123541
W        0.00000000       6.37293849      49.10438873
W        1.59323462       7.96617311      50.69756240
W        3.18646924       0.00000000       0.79657277
W        4.77970386       1.59323462       2.38974643
W        3.18646924      -0.00000000       3.98289976
W        4.77970386       1.59323462       5.57600196
W        3.18646924       0.00000000       7.16914360
W        4.77970386       1.59323462       8.76232548
W        3.18646924       0.00000000      10.35552376
W        4.77970386       1.59323462      11.94873892
W        3.18646924       0.00000000      13.54195714
W        4.77970386       1.59323462      15.13512368
W        3.18646924       0.00000000      16.72824473
W        4.77970386       1.59323462      18.32140203
W        3.18646924      -0.00000000      19.91456148
W        4.77970386       1.59323462      21.50772305
W        3.18646924       0.00000000      23.10092020
W        4.77970386       1.59323462      24.69409247
W        3.18646924       0.00000000      26.80004270
W        4.77970386       1.59323462      28.39321496
W        3.18646924      -0.00000000      29.98641211
W        4.77970386       1.59323462      31.57957368
W        3.18646924       0.00000000      33.17273313
W        4.77970386       1.59323462      34.76589044
W        3.18646924       0.00000000      36.35901149
W        4.77970386       1.59323462      37.95217803
W        3.18646924       0.00000000      39.54539624
W        4.77970386       1.59323462      41.13861141
W        3.18646924      -0.00000000      42.73180969
W        4.77970386       1.59323462      44.32499157
W        3.18646924       0.00000000      45.91813321
W        4.77970386       1.59323462      47.51123541
W        3.18646924       0.00000000      49.10438873
W        4.77970386       1.59323462      50.69756240
W        3.18646924       3.18646924       0.79657277
W        4.77970386       4.77970386       2.38974643
W        3.18646924       3.18646924       3.98289976
W        4.77970386       4.77970386       5.57600196
W        3.18646924       3.18646924       7.16914360
W        4.77970386       4.77970386       8.76232548
W        3.18646924       3.18646924      10.35552376
W        4.77970386       4.77970386      11.94873892
W        3.18646924       3.18646924      13.54195714
W        4.77970386       4.77970386      15.13512368
W        3.18646924       3.18646924      16.72824473
W        4.77970386       4.77970386      18.32140203
W        3.18646924       3.18646924      19.91456148
W        4.77970386       4.77970386      21.50772305
W        3.18646924       3.18646924      23.10092020
W        4.77970386       4.77970386      24.69409247
W        3.18646924       3.18646924      26.80004270
W        4.77970386       4.77970386      28.39321496
W        3.18646924       3.18646924      29.98641211
W        4.77970386       4.77970386      31.57957368
W        3.18646924       3.18646924      33.17273313
W        4.77970386       4.77970386      34.76589044
W        3.18646924       3.18646924      36.35901149
W        4.77970386       4.77970386      37.95217803
W        3.18646924       3.18646924      39.54539624
W        4.77970386       4.77970386      41.13861141
W        3.18646924       3.18646924      42.73180969
W        4.77970386       4.77970386      44.32499157
W        3.18646924       3.18646924      45.91813321
W        4.77970386       4.77970386      47.51123541
W        3.18646924       3.18646924      49.10438873
W        4.77970386       4.77970386      50.69756240
W        3.18646924       6.37293849       0.79657277
W        4.77970386       7.96617311       2.38974643
W        3.18646924       6.37293849       3.98289976
W        4.77970386       7.96617311       5.57600196
W        3.18646924       6.37293849       7.16914360
W        4.77970386       7.96617311       8.76232548
W        3.18646924       6.37293849      10.35552376
W        4.77970386       7.96617311      11.94873892
W        3.18646924       6.37293849      13.54195714
W        4.77970386       7.96617311      15.13512368
W        3.18646924       6.37293849      16.72824473
W        4.77970386       7.96617311      18.32140203
W        3.18646924       6.37293849      19.91456148
W        4.77970386       7.96617311      21.50772305
W        3.18646924       6.37293849      23.10092020
W        4.77970386       7.96617311      24.69409247
W        3.18646924       6.37293849      26.80004270
W        4.77970386       7.96617311      28.39321496
W        3.18646924       6.37293849      29.98641211
W        4.77970386       7.96617311      31.57957368
W        3.18646924       6.37293849      33.17273313
W        4.77970386       7.96617311      34.76589044
W        3.18646924       6.37293849      36.35901149
W        4.77970386       7.96617311      37.95217803
W        3.18646924       6.37293849      39.54539624
W        4.77970386       7.96617311      41.13861141
W        3.18646924       6.37293849      42.73180969
W        4.77970386       7.96617311      44.32499157
W        3.18646924       6.37293849      45.91813321
W        4.77970386       7.96617311      47.51123541
W        3.18646924       6.37293849      49.10438873
W        4.77970386       7.96617311      50.69756240
W        6.37293849       0.00000000       0.79657277
W        7.96617311       1.59323462       2.38974643
W        6.37293849       0.00000000       3.98289976
W        7.96617311       1.59323462       5.57600196
W        6.37293849       0.00000000       7.16914360
W        7.96617311       1.59323462       8.76232548
W        6.37293849      -0.00000000      10.35552376
W        7.96617311       1.59323462      11.94873892
W        6.37293849       0.00000000      13.54195714
W        7.96617311       1.59323462      15.13512368
W        6.37293849      -0.00000000      16.72824473
W        7.96617311       1.59323462      18.32140203
W        6.37293849       0.00000000      19.91456148
W        7.96617311       1.59323462      21.50772305
W        6.37293849       0.00000000      23.10092020
W        7.96617311       1.59323462      24.69409247
W        6.37293849       0.00000000      26.80004270
W        7.96617311       1.59323462      28.39321496
W        6.37293849       0.00000000      29.98641211
W        7.96617311       1.59323462      31.57957368
W        6.37293849      -0.00000000      33.17273313
W        7.96617311       1.59323462      34.76589044
W        6.37293849       0.00000000      36.35901149
W        7.96617311       1.59323462      37.95217803
W        6.37293849      -0.00000000      39.54539624
W        7.96617311       1.59323462      41.13861141
W        6.37293849       0.00000000      42.73180969
W        7.96617311       1.59323462      44.32499157
W        6.37293849       0.00000000      45.91813321
W        7.96617311       1.59323462      47.51123541
W        6.37293849      -0.00000000      49.10438873
W        7.96617311       1.59323462      50.69756240
W        6.37293849       3.18646924       0.79657277
W        7.96617311       4.77970386       2.38974643
W        6.37293849       3.18646924       3.98289976
W        7.96617311       4.77970386       5.57600196
W        6.37293849       3.18646924       7.16914360
W        7.96617311       4.77970386       8.76232548
W        6.37293849       3.18646924      10.35552376
W        7.96617311       4.77970386      11.94873892
W        6.37293849       3.18646924      13.54195714
W        7.96617311       4.77970386      15.13512368
W        6.37293849       3.18646924      16.72824473
W        7.96617311       4.77970386      18.32140203
W        6.37293849       3.18646924      19.91456148
W        7.96617311       4.77970386      21.50772305
W        6.37293849       3.18646924      23.10092020
W        7.96617311       4.77970386      24.69409247
W        6.37293849       3.18646924      26.80004270
W        7.96617311       4.77970386      28.39321496
W        6.37293849       3.18646924      29.98641211
W        7.96617311       4.77970386      31.57957368
W        6.37293849       3.18646924      33.17273313
W        7.96617311       4.77970386      34.76589044
W        6.37293849       3.18646924      36.35901149
W        7.96617311       4.77970386      37.95217803
W        6.37293849       3.18646924      39.54539624
W        7.96617311       4.77970386      41.13861141
W        6.37293849       3.18646924      42.73180969
W        7.96617311       4.77970386      44.32499157
W        6.37293849       3.18646924      45.91813321
W        7.96617311       4.77970386      47.51123541
W        6.37293849       3.18646924      49.10438873
W        7.96617311       4.77970386      50.69756240
W        6.37293849       6.37293849       0.79657277
W        7.96617311       7.96617311       2.38974643
W        6.37293849       6.37293849       3.98289976
W        7.96617311       7.96617311       5.57600196
W        6.37293849       6.37293849       7.16914360
W        7.96617311       7.96617311       8.76232548
W        6.37293849       6.37293849      10.35552376
W        7.96617311       7.96617311      11.94873892
W        6.37293849       6.37293849      13.54195714
W        7.96617311       7.96617311      15.13512368
W        6.37293849       6.37293849      16.72824473
W        7.96617311       7.96617311      18.32140203
W        6.37293849       6.37293849      19.91456148
W        7.96617311       7.96617311      21.50772305
W        6.37293849       6.37293849      23.10092020
W        7.96617311       7.96617311      24.69409247
W        6.37293849       6.37293849      26.80004270
W        7.96617311       7.96617311      28.39321496
W        6.37293849       6.37293849      29.98641211
W        7.96617311       7.96617311      31.57957368
W        6.37293849       6.37293849      33.17273313
W        7.96617311       7.96617311      34.76589044
W        6.37293849       6.37293849      36.35901149
W        7.96617311       7.96617311      37.95217803
W        6.37293849       6.37293849      39.54539624
W        7.96617311       7.96617311      41.13861141
W        6.37293849       6.37293849      42.73180969
W        7.96617311       7.96617311      44.32499157
W        6.37293849       6.37293849      45.91813321
W        7.96617311       7.96617311      47.51123541
W        6.37293849       6.37293849      49.10438873
W        7.96617311       7.96617311      50.69756240
288
Lattice="9.559407728649656 -9.087318898702386e-18 2.3918883122634095e-17 -9.087318898702381e-18 9.559407728649656 -2.3057458068536844e-17 1.2294658829237918e-16 -1.138024128057971e-16 51.59669926951526" Properties=species:S:1:pos:R:3 vacuum_gap_Ang=0.6153846153846154 frame_index=6 pbc="T T T"
W       -0.00000000       0.00000000       0.79657277
W        1.59323462       1.59323462       2.38974643
W       -0.00000000       0.00000000       3.98289976
W        1.59323462       1.59323462       5.57600196
W       -0.00000000       0.00000000       7.16914360
W        1.59323462       1.59323462       8.76232548
W        0.00000000      -0.00000000      10.35552376
W        1.59323462       1.59323462      11.94873892
W       -0.00000000       0.00000000      13.54195714
W        1.59323462       1.59323462      15.13512368
W        0.00000000       0.00000000      16.72824473
W        1.59323462       1.59323462      18.32140203
W        0.00000000       0.00000000      19.91456148
W        1.59323462       1.59323462      21.50772305
W        0.00000000       0.00000000      23.10092020
W        1.59323462       1.59323462      24.69409247
W       -0.00000000       0.00000000      26.90260680
W        1.59323462       1.59323462      28.49577906
W       -0.00000000       0.00000000      30.08897621
W        1.59323462       1.59323462      31.68213779
W        0.00000000      -0.00000000      33.27529724
W        1.59323462       1.59323462      34.86845454
W        0.00000000      -0.00000000      36.46157559
W        1.59323462       1.59323462      38.05474213
W       -0.00000000      -0.00000000      39.64796035
W        1.59323462       1.59323462      41.24117551
W        0.00000000      -0.00000000      42.83437379
W        1.59323462       1.59323462      44.42755567
W        0.00000000      -0.00000000      46.02069731
W        1.59323462       1.59323462      47.61379951
W        0.00000000       0.00000000      49.20695284
W        1.59323462       1.59323462      50.80012650
W        0.00000000       3.18646924       0.79657277
W        1.59323462       4.77970386       2.38974643
W        0.00000000       3.18646924       3.98289976
W        1.59323462       4.77970386       5.57600196
W       -0.00000000       3.18646924       7.16914360
W        1.59323462       4.77970386       8.76232548
W       -0.00000000       3.18646924      10.35552376
W        1.59323462       4.77970386      11.94873892
W       -0.00000000       3.18646924      13.54195714
W        1.59323462       4.77970386      15.13512368
W        0.00000000       3.18646924      16.72824473
W        1.59323462       4.77970386      18.32140203
W       -0.00000000       3.18646924      19.91456148
W        1.59323462       4.77970386      21.50772305
W        0.00000000       3.18646924      23.10092020
W        1.59323462       4.77970386      24.69409247
W        0.00000000       3.18646924      26.90260680
W        1.59323462       4.77970386      28.49577906
W       -0.00000000       3.18646924      30.08897621
W        1.59323462       4.77970386      31.68213779
W        0.00000000       3.18646924      33.27529724
W        1.59323462       4.77970386      34.86845454
W       -0.00000000       3.18646924      36.46157559
W        1.59323462       4.77970386      38.05474213
W        0.00000000       3.18646924      39.64796035
W        1.59323462       4.77970386      41.24117551
W       -0.00000000       3.18646924      42.83437379
W        1.59323462       4.77970386      44.42755567
W       -0.00000000       3.18646924      46.02069731
W        1.59323462       4.77970386      47.61379951
W        0.00000000       3.18646924      49.20695284
W        1.59323462       4.77970386      50.80012650
W       -0.00000000       6.37293849       0.79657277
W        1.59323462       7.96617311       2.38974643
W        0.00000000       6.37293849       3.98289976
W        1.59323462       7.96617311       5.57600196
W       -0.00000000       6.37293849       7.16914360
W        1.59323462       7.96617311       8.76232548
W        0.00000000       6.37293849      10.35552376
W        1.59323462       7.96617311      11.94873892
W       -0.00000000       6.37293849      13.54195714
W        1.59323462       7.96617311      15.13512368
W        0.00000000       6.37293849      16.72824473
W        1.59323462       7.96617311      18.32140203
W        0.00000000       6.37293849      19.91456148
W        1.59323462       7.96617311      21.50772305
W       -0.00000000       6.37293849      23.10092020
W        1.59323462       7.96617311      24.69409247
W       -0.00000000       6.37293849      26.90260680
W        1.59323462       7.96617311      28.49577906
W        0.00000000       6.37293849      30.08897621
W        1.59323462       7.96617311      31.68213779
W        0.00000000       6.37293849      33.27529724
W        1.59323462       7.96617311      34.86845454
W        0.00000000       6.37293849      36.46157559
W        1.59323462       7.96617311      38.05474213
W        0.00000000       6.37293849      39.64796035
W        1.59323462       7.96617311      41.24117551
W        0.00000000       6.37293849      42.83437379
W        1.59323462       7.96617311      44.42755567
W       -0.00000000       6.37293849      46.02069731
W        1.59323462       7.96617311      47.61379951
W        0.00000000       6.37293849      49.20695284
W        1.59323462       7.96617311      50.80012650
W        3.18646924       0.00000000       0.79657277
W        4.77970386       1.59323462       2.38974643
W        3.18646924      -0.00000000       3.98289976
W        4.77970386       1.59323462       5.57600196
W        3.18646924       0.00000000       7.16914360
W        4.77970386       1.59323462       8.76232548
W        3.18646924       0.00000000      10.35552376
W        4.77970386       1.59323462      11.94873892
W        3.18646924       0.00000000      13.54195714
W        4.77970386       1.59323462      15.13512368
W        3.18646924       0.00000000      16.72824473
W        4.77970386       1.59323462      18.32140203
W        3.18646924      -0.00000000      19.91456148
W        4.77970386       1.59323462      21.50772305
W        3.18646924       0.00000000      23.10092020
W        4.77970386       1.59323462      24.69409247
W        3.18646924       0.00000000      26.90260680
W        4.77970386       1.59323462      28.49577906
W        3.18646924      -0.00000000      30.08897621
W        4.77970386       1.59323462      31.68213779
W        3.18646924       0.00000000      33.27529724
W        4.77970386       1.59323462      34.86845454
W        3.18646924       0.00000000      36.46157559
W        4.77970386       1.59323462      38.05474213
W        3.18646924       0.00000000      39.64796035
W        4.77970386       1.59323462      41.24117551
W        3.18646924      -0.00000000      42.83437379
W        4.77970386       1.59323462      44.42755567
W        3.18646924       0.00000000      46.02069731
W        4.77970386       1.59323462      47.61379951
W        3.18646924       0.00000000      49.20695284
W        4.77970386       1.59323462      50.80012650
W        3.18646924       3.18646924       0.79657277
W        4.77970386       4.77970386       2.38974643
W        3.18646924       3.18646924       3.98289976
W        4.77970386       4.77970386       5.57600196
W        3.18646924       3.18646924       7.16914360
W        4.77970386       4.77970386       8.76232548
W        3.18646924       3.18646924      10.35552376
W        4.77970386       4.77970386      11.94873892
W        3.18646924       3.18646924      13.54195714
W        4.77970386       4.77970386      15.13512368
W        3.18646924       3.18646924      16.72824473
W        4.77970386       4.77970386      18.32140203
W        3.18646924       3.18646924      19.91456148
W        4.77970386       4.77970386      21.50772305
W        3.18646924       3.18646924      23.10092020
W        4.77970386       4.77970386      24.69409247
W        3.18646924       3.18646924      26.90260680
W        4.77970386       4.77970386      28.49577906
W        3.18646924       3.18646924      30.08897621
W        4.77970386       4.77970386      31.68213779
W        3.18646924       3.18646924      33.27529724
W        4.77970386       4.77970386      34.86845454
W        3.18646924       3.18646924      36.46157559
W        4.77970386       4.77970386      38.05474213
W        3.18646924       3.18646924      39.64796035
W        4.77970386       4.77970386      41.24117551
W        3.18646924       3.18646924      42.83437379
W        4.77970386       4.77970386      44.42755567
W        3.18646924       3.18646924      46.02069731
W        4.77970386       4.77970386      47.61379951
W        3.18646924       3.18646924      49.20695284
W        4.77970386       4.77970386      50.80012650
W        3.18646924       6.37293849       0.79657277
W        4.77970386       7.96617311       2.38974643
W        3.18646924       6.37293849       3.98289976
W        4.77970386       7.96617311       5.57600196
W        3.18646924       6.37293849       7.16914360
W        4.77970386       7.96617311       8.76232548
W        3.18646924       6.37293849      10.35552376
W        4.77970386       7.96617311      11.94873892
W        3.18646924       6.37293849      13.54195714
W        4.77970386       7.96617311      15.13512368
W        3.18646924       6.37293849      16.72824473
W        4.77970386       7.96617311      18.32140203
W        3.18646924       6.37293849      19.91456148
W        4.77970386       7.96617311      21.50772305
W        3.18646924       6.37293849      23.10092020
W        4.77970386       7.96617311      24.69409247
W        3.18646924       6.37293849      26.90260680
W        4.77970386       7.96617311      28.49577906
W        3.18646924       6.37293849      30.08897621
W        4.77970386       7.96617311      31.68213779
W        3.18646924       6.37293849      33.27529724
W        4.77970386       7.96617311      34.86845454
W        3.18646924       6.37293849      36.46157559
W        4.77970386       7.96617311      38.05474213
W        3.18646924       6.37293849      39.64796035
W        4.77970386       7.96617311      41.24117551
W        3.18646924       6.37293849      42.83437379
W        4.77970386       7.96617311      44.42755567
W        3.18646924       6.37293849      46.02069731
W        4.77970386       7.96617311      47.61379951
W        3.18646924       6.37293849      49.20695284
W        4.77970386       7.96617311      50.80012650
W        6.37293849       0.00000000       0.79657277
W        7.96617311       1.59323462       2.38974643
W        6.37293849       0.00000000       3.98289976
W        7.96617311       1.59323462       5.57600196
W        6.37293849       0.00000000       7.16914360
W        7.96617311       1.59323462       8.76232548
W        6.37293849      -0.00000000      10.35552376
W        7.96617311       1.59323462      11.94873892
W        6.37293849       0.00000000      13.54195714
W        7.96617311       1.59323462      15.13512368
W        6.37293849      -0.00000000      16.72824473
W        7.96617311       1.59323462      18.32140203
W        6.37293849       0.00000000      19.91456148
W        7.96617311       1.59323462      21.50772305
W        6.37293849       0.00000000      23.10092020
W        7.96617311       1.59323462      24.69409247
W        6.37293849       0.00000000      26.90260680
W        7.96617311       1.59323462      28.49577906
W        6.37293849       0.00000000      30.08897621
W        7.96617311       1.59323462      31.68213779
W        6.37293849      -0.00000000      33.27529724
W        7.96617311       1.59323462      34.86845454
W        6.37293849       0.00000000      36.46157559
W        7.96617311       1.59323462      38.05474213
W        6.37293849      -0.00000000      39.64796035
W        7.96617311       1.59323462      41.24117551
W        6.37293849       0.00000000      42.83437379
W        7.96617311       1.59323462      44.42755567
W        6.37293849       0.00000000      46.02069731
W        7.96617311       1.59323462      47.61379951
W        6.37293849      -0.00000000      49.20695284
W        7.96617311       1.59323462      50.80012650
W        6.37293849       3.18646924       0.79657277
W        7.96617311       4.77970386       2.38974643
W        6.37293849       3.18646924       3.98289976
W        7.96617311       4.77970386       5.57600196
W        6.37293849       3.18646924       7.16914360
W        7.96617311       4.77970386       8.76232548
W        6.37293849       3.18646924      10.35552376
W        7.96617311       4.77970386      11.94873892
W        6.37293849       3.18646924      13.54195714
W        7.96617311       4.77970386      15.13512368
W        6.37293849       3.18646924      16.72824473
W        7.96617311       4.77970386      18.32140203
W        6.37293849       3.18646924      19.91456148
W        7.96617311       4.77970386      21.50772305
W        6.37293849       3.18646924      23.10092020
W        7.96617311       4.77970386      24.69409247
W        6.37293849       3.18646924      26.90260680
W        7.96617311       4.77970386      28.49577906
W        6.37293849       3.18646924      30.08897621
W        7.96617311       4.77970386      31.68213779
W        6.37293849       3.18646924      33.27529724
W        7.96617311       4.77970386      34.86845454
W        6.37293849       3.18646924      36.46157559
W        7.96617311       4.77970386      38.05474213
W        6.37293849       3.18646924      39.64796035
W        7.96617311       4.77970386      41.24117551
W        6.37293849       3.18646924      42.83437379
W        7.96617311       4.77970386      44.42755567
W        6.37293849       3.18646924      46.02069731
W        7.96617311       4.77970386      47.61379951
W        6.37293849       3.18646924      49.20695284
W        7.96617311       4.77970386      50.80012650
W        6.37293849       6.37293849       0.79657277
W        7.96617311       7.96617311       2.38974643
W        6.37293849       6.37293849       3.98289976
W        7.96617311       7.96617311       5.57600196
W        6.37293849       6.37293849       7.16914360
W        7.96617311       7.96617311       8.76232548
W        6.37293849       6.37293849      10.35552376
W        7.96617311       7.96617311      11.94873892
W        6.37293849       6.37293849      13.54195714
W        7.96617311       7.96617311      15.13512368
W        6.37293849       6.37293849      16.72824473
W        7.96617311       7.96617311      18.32140203
W        6.37293849       6.37293849      19.91456148
W        7.96617311       7.96617311      21.50772305
W        6.37293849       6.37293849      23.10092020
W        7.96617311       7.96617311      24.69409247
W        6.37293849       6.37293849      26.90260680
W        7.96617311       7.96617311      28.49577906
W        6.37293849       6.37293849      30.08897621
W        7.96617311       7.96617311      31.68213779
W        6.37293849       6.37293849      33.27529724
W        7.96617311       7.96617311      34.86845454
W        6.37293849       6.37293849      36.46157559
W        7.96617311       7.96617311      38.05474213
W        6.37293849       6.37293849      39.64796035
W        7.96617311       7.96617311      41.24117551
W        6.37293849       6.37293849      42.83437379
W        7.96617311       7.96617311      44.42755567
W        6.37293849       6.37293849      46.02069731
W        7.96617311       7.96617311      47.61379951
W        6.37293849       6.37293849      49.20695284
W        7.96617311       7.96617311      50.80012650
288
Lattice="9.559407728649656 -9.087318898702386e-18 2.3918883122634095e-17 -9.087318898702381e-18 9.559407728649656 -2.3057458068536844e-17 1.2294658829237918e-16 -1.138024128057971e-16 51.699263372079365" Properties=species:S:1:pos:R:3 vacuum_gap_Ang=0.717948717948718 frame_index=7 pbc="T T T"
W       -0.00000000       0.00000000       0.79657277
W        1.59323462       1.59323462       2.38974643
W       -0.00000000       0.00000000       3.98289976
W        1.59323462       1.59323462       5.57600196
W       -0.00000000       0.00000000       7.16914360
W        1.59323462       1.59323462       8.76232548
W        0.00000000      -0.00000000      10.35552376
W        1.59323462       1.59323462      11.94873892
W       -0.00000000       0.00000000      13.54195714
W        1.59323462       1.59323462      15.13512368
W        0.00000000       0.00000000      16.72824473
W        1.59323462       1.59323462      18.32140203
W        0.00000000       0.00000000      19.91456148
W        1.59323462       1.59323462      21.50772305
W        0.00000000       0.00000000      23.10092020
W        1.59323462       1.59323462      24.69409247
W       -0.00000000       0.00000000      27.00517091
W        1.59323462       1.59323462      28.59834317
W       -0.00000000       0.00000000      30.19154032
W        1.59323462       1.59323462      31.78470189
W        0.00000000      -0.00000000      33.37786134
W        1.59323462       1.59323462      34.97101864
W        0.00000000      -0.00000000      36.56413969
W        1.59323462       1.59323462      38.15730623
W       -0.00000000      -0.00000000      39.75052445
W        1.59323462       1.59323462      41.34373961
W        0.00000000      -0.00000000      42.93693789
W        1.59323462       1.59323462      44.53011977
W        0.00000000      -0.00000000      46.12326141
W        1.59323462       1.59323462      47.71636361
W        0.00000000       0.00000000      49.30951694
W        1.59323462       1.59323462      50.90269060
W        0.00000000       3.18646924       0.79657277
W        1.59323462       4.77970386       2.38974643
W        0.00000000       3.18646924       3.98289976
W        1.59323462       4.77970386       5.57600196
W       -0.00000000       3.18646924       7.16914360
W        1.59323462       4.77970386       8.76232548
W       -0.00000000       3.18646924      10.35552376
W        1.59323462       4.77970386      11.94873892
W       -0.00000000       3.18646924      13.54195714
W        1.59323462       4.77970386      15.13512368
W        0.00000000       3.18646924      16.72824473
W        1.59323462       4.77970386      18.32140203
W       -0.00000000       3.18646924      19.91456148
W        1.59323462       4.77970386      21.50772305
W        0.00000000       3.18646924      23.10092020
W        1.59323462       4.77970386      24.69409247
W        0.00000000       3.18646924      27.00517091
W        1.59323462       4.77970386      28.59834317
W       -0.00000000       3.18646924      30.19154032
W        1.59323462       4.77970386      31.78470189
W        0.00000000       3.18646924      33.37786134
W        1.59323462       4.77970386      34.97101864
W       -0.00000000       3.18646924      36.56413969
W        1.59323462       4.77970386      38.15730623
W        0.00000000       3.18646924      39.75052445
W        1.59323462       4.77970386      41.34373961
W       -0.00000000       3.18646924      42.93693789
W        1.59323462       4.77970386      44.53011977
W       -0.00000000       3.18646924      46.12326141
W        1.59323462       4.77970386      47.71636361
W        0.00000000       3.18646924      49.30951694
W        1.59323462       4.77970386      50.90269060
W       -0.00000000       6.37293849       0.79657277
W        1.59323462       7.96617311       2.38974643
W        0.00000000       6.37293849       3.98289976
W        1.59323462       7.96617311       5.57600196
W       -0.00000000       6.37293849       7.16914360
W        1.59323462       7.96617311       8.76232548
W        0.00000000       6.37293849      10.35552376
W        1.59323462       7.96617311      11.94873892
W       -0.00000000       6.37293849      13.54195714
W        1.59323462       7.96617311      15.13512368
W        0.00000000       6.37293849      16.72824473
W        1.59323462       7.96617311      18.32140203
W        0.00000000       6.37293849      19.91456148
W        1.59323462       7.96617311      21.50772305
W       -0.00000000       6.37293849      23.10092020
W        1.59323462       7.96617311      24.69409247
W       -0.00000000       6.37293849      27.00517091
W        1.59323462       7.96617311      28.59834317
W        0.00000000       6.37293849      30.19154032
W        1.59323462       7.96617311      31.78470189
W        0.00000000       6.37293849      33.37786134
W        1.59323462       7.96617311      34.97101864
W        0.00000000       6.37293849      36.56413969
W        1.59323462       7.96617311      38.15730623
W        0.00000000       6.37293849      39.75052445
W        1.59323462       7.96617311      41.34373961
W        0.00000000       6.37293849      42.93693789
W        1.59323462       7.96617311      44.53011977
W       -0.00000000       6.37293849      46.12326141
W        1.59323462       7.96617311      47.71636361
W        0.00000000       6.37293849      49.30951694
W        1.59323462       7.96617311      50.90269060
W        3.18646924       0.00000000       0.79657277
W        4.77970386       1.59323462       2.38974643
W        3.18646924      -0.00000000       3.98289976
W        4.77970386       1.59323462       5.57600196
W        3.18646924       0.00000000       7.16914360
W        4.77970386       1.59323462       8.76232548
W        3.18646924       0.00000000      10.35552376
W        4.77970386       1.59323462      11.94873892
W        3.18646924       0.00000000      13.54195714
W        4.77970386       1.59323462      15.13512368
W        3.18646924       0.00000000      16.72824473
W        4.77970386       1.59323462      18.32140203
W        3.18646924      -0.00000000      19.91456148
W        4.77970386       1.59323462      21.50772305
W        3.18646924       0.00000000      23.10092020
W        4.77970386       1.59323462      24.69409247
W        3.18646924       0.00000000      27.00517091
W        4.77970386       1.59323462      28.59834317
W        3.18646924      -0.00000000      30.19154032
W        4.77970386       1.59323462      31.78470189
W        3.18646924       0.00000000      33.37786134
W        4.77970386       1.59323462      34.97101864
W        3.18646924       0.00000000      36.56413969
W        4.77970386       1.59323462      38.15730623
W        3.18646924       0.00000000      39.75052445
W        4.77970386       1.59323462      41.34373961
W        3.18646924      -0.00000000      42.93693789
W        4.77970386       1.59323462      44.53011977
W        3.18646924       0.00000000      46.12326141
W        4.77970386       1.59323462      47.71636361
W        3.18646924       0.00000000      49.30951694
W        4.77970386       1.59323462      50.90269060
W        3.18646924       3.18646924       0.79657277
W        4.77970386       4.77970386       2.38974643
W        3.18646924       3.18646924       3.98289976
W        4.77970386       4.77970386       5.57600196
W        3.18646924       3.18646924       7.16914360
W        4.77970386       4.77970386       8.76232548
W        3.18646924       3.18646924      10.35552376
W        4.77970386       4.77970386      11.94873892
W        3.18646924       3.18646924      13.54195714
W        4.77970386       4.77970386      15.13512368
W        3.18646924       3.18646924      16.72824473
W        4.77970386       4.77970386      18.32140203
W        3.18646924       3.18646924      19.91456148
W        4.77970386       4.77970386      21.50772305
W        3.18646924       3.18646924      23.10092020
W        4.77970386       4.77970386      24.69409247
W        3.18646924       3.18646924      27.00517091
W        4.77970386       4.77970386      28.59834317
W        3.18646924       3.18646924      30.19154032
W        4.77970386       4.77970386      31.78470189
W        3.18646924       3.18646924      33.37786134
W        4.77970386       4.77970386      34.97101864
W        3.18646924       3.18646924      36.56413969
W        4.77970386       4.77970386      38.15730623
W        3.18646924       3.18646924      39.75052445
W        4.77970386       4.77970386      41.34373961
W        3.18646924       3.18646924      42.93693789
W        4.77970386       4.77970386      44.53011977
W        3.18646924       3.18646924      46.12326141
W        4.77970386       4.77970386      47.71636361
W        3.18646924       3.18646924      49.30951694
W        4.77970386       4.77970386      50.90269060
W        3.18646924       6.37293849       0.79657277
W        4.77970386       7.96617311       2.38974643
W        3.18646924       6.37293849       3.98289976
W        4.77970386       7.96617311       5.57600196
W        3.18646924       6.37293849       7.16914360
W        4.77970386       7.96617311       8.76232548
W        3.18646924       6.37293849      10.35552376
W        4.77970386       7.96617311      11.94873892
W        3.18646924       6.37293849      13.54195714
W        4.77970386       7.96617311      15.13512368
W        3.18646924       6.37293849      16.72824473
W        4.77970386       7.96617311      18.32140203
W        3.18646924       6.37293849      19.91456148
W        4.77970386       7.96617311      21.50772305
W        3.18646924       6.37293849      23.10092020
W        4.77970386       7.96617311      24.69409247
W        3.18646924       6.37293849      27.00517091
W        4.77970386       7.96617311      28.59834317
W        3.18646924       6.37293849      30.19154032
W        4.77970386       7.96617311      31.78470189
W        3.18646924       6.37293849      33.37786134
W        4.77970386       7.96617311      34.97101864
W        3.18646924       6.37293849      36.56413969
W        4.77970386       7.96617311      38.15730623
W        3.18646924       6.37293849      39.75052445
W        4.77970386       7.96617311      41.34373961
W        3.18646924       6.37293849      42.93693789
W        4.77970386       7.96617311      44.53011977
W        3.18646924       6.37293849      46.12326141
W        4.77970386       7.96617311      47.71636361
W        3.18646924       6.37293849      49.30951694
W        4.77970386       7.96617311      50.90269060
W        6.37293849       0.00000000       0.79657277
W        7.96617311       1.59323462       2.38974643
W        6.37293849       0.00000000       3.98289976
W        7.96617311       1.59323462       5.57600196
W        6.37293849       0.00000000       7.16914360
W        7.96617311       1.59323462       8.76232548
W        6.37293849      -0.00000000      10.35552376
W        7.96617311       1.59323462      11.94873892
W        6.37293849       0.00000000      13.54195714
W        7.96617311       1.59323462      15.13512368
W        6.37293849      -0.00000000      16.72824473
W        7.96617311       1.59323462      18.32140203
W        6.37293849       0.00000000      19.91456148
W        7.96617311       1.59323462      21.50772305
W        6.37293849       0.00000000      23.10092020
W        7.96617311       1.59323462      24.69409247
W        6.37293849       0.00000000      27.00517091
W        7.96617311       1.59323462      28.59834317
W        6.37293849       0.00000000      30.19154032
W        7.96617311       1.59323462      31.78470189
W        6.37293849      -0.00000000      33.37786134
W        7.96617311       1.59323462      34.97101864
W        6.37293849       0.00000000      36.56413969
W        7.96617311       1.59323462      38.15730623
W        6.37293849      -0.00000000      39.75052445
W        7.96617311       1.59323462      41.34373961
W        6.37293849       0.00000000      42.93693789
W        7.96617311       1.59323462      44.53011977
W        6.37293849       0.00000000      46.12326141
W        7.96617311       1.59323462      47.71636361
W        6.37293849      -0.00000000      49.30951694
W        7.96617311       1.59323462      50.90269060
W        6.37293849       3.18646924       0.79657277
W        7.96617311       4.77970386       2.38974643
W        6.37293849       3.18646924       3.98289976
W        7.96617311       4.77970386       5.57600196
W        6.37293849       3.18646924       7.16914360
W        7.96617311       4.77970386       8.76232548
W        6.37293849       3.18646924      10.35552376
W        7.96617311       4.77970386      11.94873892
W        6.37293849       3.18646924      13.54195714
W        7.96617311       4.77970386      15.13512368
W        6.37293849       3.18646924      16.72824473
W        7.96617311       4.77970386      18.32140203
W        6.37293849       3.18646924      19.91456148
W        7.96617311       4.77970386      21.50772305
W        6.37293849       3.18646924      23.10092020
W        7.96617311       4.77970386      24.69409247
W        6.37293849       3.18646924      27.00517091
W        7.96617311       4.77970386      28.59834317
W        6.37293849       3.18646924      30.19154032
W        7.96617311       4.77970386      31.78470189
W        6.37293849       3.18646924      33.37786134
W        7.96617311       4.77970386      34.97101864
W        6.37293849       3.18646924      36.56413969
W        7.96617311       4.77970386      38.15730623
W        6.37293849       3.18646924      39.75052445
W        7.96617311       4.77970386      41.34373961
W        6.37293849       3.18646924      42.93693789
W        7.96617311       4.77970386      44.53011977
W        6.37293849       3.18646924      46.12326141
W        7.96617311       4.77970386      47.71636361
W        6.37293849       3.18646924      49.30951694
W        7.96617311       4.77970386      50.90269060
W        6.37293849       6.37293849       0.79657277
W        7.96617311       7.96617311       2.38974643
W        6.37293849       6.37293849       3.98289976
W        7.96617311       7.96617311       5.57600196
W        6.37293849       6.37293849       7.16914360
W        7.96617311       7.96617311       8.76232548
W        6.37293849       6.37293849      10.35552376
W        7.96617311       7.96617311      11.94873892
W        6.37293849       6.37293849      13.54195714
W        7.96617311       7.96617311      15.13512368
W        6.37293849       6.37293849      16.72824473
W        7.96617311       7.96617311      18.32140203
W        6.37293849       6.37293849      19.91456148
W        7.96617311       7.96617311      21.50772305
W        6.37293849       6.37293849      23.10092020
W        7.96617311       7.96617311      24.69409247
W        6.37293849       6.37293849      27.00517091
W        7.96617311       7.96617311      28.59834317
W        6.37293849       6.37293849      30.19154032
W        7.96617311       7.96617311      31.78470189
W        6.37293849       6.37293849      33.37786134
W        7.96617311       7.96617311      34.97101864
W        6.37293849       6.37293849      36.56413969
W        7.96617311       7.96617311      38.15730623
W        6.37293849       6.37293849      39.75052445
W        7.96617311       7.96617311      41.34373961
W        6.37293849       6.37293849      42.93693789
W        7.96617311       7.96617311      44.53011977
W        6.37293849       6.37293849      46.12326141
W        7.96617311       7.96617311      47.71636361
W        6.37293849       6.37293849      49.30951694
W        7.96617311       7.96617311      50.90269060
288
Lattice="9.559407728649656 -9.087318898702386e-18 2.3918883122634095e-17 -9.087318898702381e-18 9.559407728649656 -2.3057458068536844e-17 1.2294658829237918e-16 -1.138024128057971e-16 51.80182747464347" Properties=species:S:1:pos:R:3 vacuum_gap_Ang=0.8205128205128205 frame_index=8 pbc="T T T"
W       -0.00000000       0.00000000       0.79657277
W        1.59323462       1.59323462       2.38974643
W       -0.00000000       0.00000000       3.98289976
W        1.59323462       1.59323462       5.57600196
W       -0.00000000       0.00000000       7.16914360
W        1.59323462       1.59323462       8.76232548
W        0.00000000      -0.00000000      10.35552376
W        1.59323462       1.59323462      11.94873892
W       -0.00000000       0.00000000      13.54195714
W        1.59323462       1.59323462      15.13512368
W        0.00000000       0.00000000      16.72824473
W        1.59323462       1.59323462      18.32140203
W        0.00000000       0.00000000      19.91456148
W        1.59323462       1.59323462      21.50772305
W        0.00000000       0.00000000      23.10092020
W        1.59323462       1.59323462      24.69409247
W       -0.00000000       0.00000000      27.10773501
W        1.59323462       1.59323462      28.70090727
W       -0.00000000       0.00000000      30.29410442
W        1.59323462       1.59323462      31.88726599
W        0.00000000      -0.00000000      33.48042544
W        1.59323462       1.59323462      35.07358275
W        0.00000000      -0.00000000      36.66670380
W        1.59323462       1.59323462      38.25987034
W       -0.00000000      -0.00000000      39.85308855
W        1.59323462       1.59323462      41.44630372
W        0.00000000      -0.00000000      43.03950199
W        1.59323462       1.59323462      44.63268388
W        0.00000000      -0.00000000      46.22582552
W        1.59323462       1.59323462      47.81892772
W        0.00000000       0.00000000      49.41208104
W        1.59323462       1.59323462      51.00525471
W        0.00000000       3.18646924       0.79657277
W        1.59323462       4.77970386       2.38974643
W        0.00000000       3.18646924       3.98289976
W        1.59323462       4.77970386       5.57600196
W       -0.00000000       3.18646924       7.16914360
W        1.59323462       4.77970386       8.76232548
W       -0.00000000       3.18646924      10.35552376
W        1.59323462       4.77970386      11.94873892
W       -0.00000000       3.18646924      13.54195714
W        1.59323462       4.77970386      15.13512368
W        0.00000000       3.18646924      16.72824473
W        1.59323462       4.77970386      18.32140203
W       -0.00000000       3.18646924      19.91456148
W        1.59323462       4.77970386      21.50772305
W        0.00000000       3.18646924      23.10092020
W        1.59323462       4.77970386      24.69409247
W        0.00000000       3.18646924      27.10773501
W        1.59323462       4.77970386      28.70090727
W       -0.00000000       3.18646924      30.29410442
W        1.59323462       4.77970386      31.88726599
W        0.00000000       3.18646924      33.48042544
W        1.59323462       4.77970386      35.07358275
W       -0.00000000       3.18646924      36.66670380
W        1.59323462       4.77970386      38.25987034
W        0.00000000       3.18646924      39.85308855
W        1.59323462       4.77970386      41.44630372
W       -0.00000000       3.18646924      43.03950199
W        1.59323462       4.77970386      44.63268388
W       -0.00000000       3.18646924      46.22582552
W        1.59323462       4.77970386      47.81892772
W        0.00000000       3.18646924      49.41208104
W        1.59323462       4.77970386      51.00525471
W       -0.00000000       6.37293849       0.79657277
W        1.59323462       7.96617311       2.38974643
W        0.00000000       6.37293849       3.98289976
W        1.59323462       7.96617311       5.57600196
W       -0.00000000       6.37293849       7.16914360
W        1.59323462       7.96617311       8.76232548
W        0.00000000       6.37293849      10.35552376
W        1.59323462       7.96617311      11.94873892
W       -0.00000000       6.37293849      13.54195714
W        1.59323462       7.96617311      15.13512368
W        0.00000000       6.37293849      16.72824473
W        1.59323462       7.96617311      18.32140203
W        0.00000000       6.37293849      19.91456148
W        1.59323462       7.96617311      21.50772305
W       -0.00000000       6.37293849      23.10092020
W        1.59323462       7.96617311      24.69409247
W       -0.00000000       6.37293849      27.10773501
W        1.59323462       7.96617311      28.70090727
W        0.00000000       6.37293849      30.29410442
W        1.59323462       7.96617311      31.88726599
W        0.00000000       6.37293849      33.48042544
W        1.59323462       7.96617311      35.07358275
W        0.00000000       6.37293849      36.66670380
W        1.59323462       7.96617311      38.25987034
W        0.00000000       6.37293849      39.85308855
W        1.59323462       7.96617311      41.44630372
W        0.00000000       6.37293849      43.03950199
W        1.59323462       7.96617311      44.63268388
W       -0.00000000       6.37293849      46.22582552
W        1.59323462       7.96617311      47.81892772
W        0.00000000       6.37293849      49.41208104
W        1.59323462       7.96617311      51.00525471
W        3.18646924       0.00000000       0.79657277
W        4.77970386       1.59323462       2.38974643
W        3.18646924      -0.00000000       3.98289976
W        4.77970386       1.59323462       5.57600196
W        3.18646924       0.00000000       7.16914360
W        4.77970386       1.59323462       8.76232548
W        3.18646924       0.00000000      10.35552376
W        4.77970386       1.59323462      11.94873892
W        3.18646924       0.00000000      13.54195714
W        4.77970386       1.59323462      15.13512368
W        3.18646924       0.00000000      16.72824473
W        4.77970386       1.59323462      18.32140203
W        3.18646924      -0.00000000      19.91456148
W        4.77970386       1.59323462      21.50772305
W        3.18646924       0.00000000      23.10092020
W        4.77970386       1.59323462      24.69409247
W        3.18646924       0.00000000      27.10773501
W        4.77970386       1.59323462      28.70090727
W        3.18646924      -0.00000000      30.29410442
W        4.77970386       1.59323462      31.88726599
W        3.18646924       0.00000000      33.48042544
W        4.77970386       1.59323462      35.07358275
W        3.18646924       0.00000000      36.66670380
W        4.77970386       1.59323462      38.25987034
W        3.18646924       0.00000000      39.85308855
W        4.77970386       1.59323462      41.44630372
W        3.18646924      -0.00000000      43.03950199
W        4.77970386       1.59323462      44.63268388
W        3.18646924       0.00000000      46.22582552
W        4.77970386       1.59323462      47.81892772
W        3.18646924       0.00000000      49.41208104
W        4.77970386       1.59323462      51.00525471
W        3.18646924       3.18646924       0.79657277
W        4.77970386       4.77970386       2.38974643
W        3.18646924       3.18646924       3.98289976
W        4.77970386       4.77970386       5.57600196
W        3.18646924       3.18646924       7.16914360
W        4.77970386       4.77970386       8.76232548
W        3.18646924       3.18646924      10.35552376
W        4.77970386       4.77970386      11.94873892
W        3.18646924       3.18646924      13.54195714
W        4.77970386       4.77970386      15.13512368
W        3.18646924       3.18646924      16.72824473
W        4.77970386       4.77970386      18.32140203
W        3.18646924       3.18646924      19.91456148
W        4.77970386       4.77970386      21.50772305
W        3.18646924       3.18646924      23.10092020
W        4.77970386       4.77970386      24.69409247
W        3.18646924       3.18646924      27.10773501
W        4.77970386       4.77970386      28.70090727
W        3.18646924       3.18646924      30.29410442
W        4.77970386       4.77970386      31.88726599
W        3.18646924       3.18646924      33.48042544
W        4.77970386       4.77970386      35.07358275
W        3.18646924       3.18646924      36.66670380
W        4.77970386       4.77970386      38.25987034
W        3.18646924       3.18646924      39.85308855
W        4.77970386       4.77970386      41.44630372
W        3.18646924       3.18646924      43.03950199
W        4.77970386       4.77970386      44.63268388
W        3.18646924       3.18646924      46.22582552
W        4.77970386       4.77970386      47.81892772
W        3.18646924       3.18646924      49.41208104
W        4.77970386       4.77970386      51.00525471
W        3.18646924       6.37293849       0.79657277
W        4.77970386       7.96617311       2.38974643
W        3.18646924       6.37293849       3.98289976
W        4.77970386       7.96617311       5.57600196
W        3.18646924       6.37293849       7.16914360
W        4.77970386       7.96617311       8.76232548
W        3.18646924       6.37293849      10.35552376
W        4.77970386       7.96617311      11.94873892
W        3.18646924       6.37293849      13.54195714
W        4.77970386       7.96617311      15.13512368
W        3.18646924       6.37293849      16.72824473
W        4.77970386       7.96617311      18.32140203
W        3.18646924       6.37293849      19.91456148
W        4.77970386       7.96617311      21.50772305
W        3.18646924       6.37293849      23.10092020
W        4.77970386       7.96617311      24.69409247
W        3.18646924       6.37293849      27.10773501
W        4.77970386       7.96617311      28.70090727
W        3.18646924       6.37293849      30.29410442
W        4.77970386       7.96617311      31.88726599
W        3.18646924       6.37293849      33.48042544
W        4.77970386       7.96617311      35.07358275
W        3.18646924       6.37293849      36.66670380
W        4.77970386       7.96617311      38.25987034
W        3.18646924       6.37293849      39.85308855
W        4.77970386       7.96617311      41.44630372
W        3.18646924       6.37293849      43.03950199
W        4.77970386       7.96617311      44.63268388
W        3.18646924       6.37293849      46.22582552
W        4.77970386       7.96617311      47.81892772
W        3.18646924       6.37293849      49.41208104
W        4.77970386       7.96617311      51.00525471
W        6.37293849       0.00000000       0.79657277
W        7.96617311       1.59323462       2.38974643
W        6.37293849       0.00000000       3.98289976
W        7.96617311       1.59323462       5.57600196
W        6.37293849       0.00000000       7.16914360
W        7.96617311       1.59323462       8.76232548
W        6.37293849      -0.00000000      10.35552376
W        7.96617311       1.59323462      11.94873892
W        6.37293849       0.00000000      13.54195714
W        7.96617311       1.59323462      15.13512368
W        6.37293849      -0.00000000      16.72824473
W        7.96617311       1.59323462      18.32140203
W        6.37293849       0.00000000      19.91456148
W        7.96617311       1.59323462      21.50772305
W        6.37293849       0.00000000      23.10092020
W        7.96617311       1.59323462      24.69409247
W        6.37293849       0.00000000      27.10773501
W        7.96617311       1.59323462      28.70090727
W        6.37293849       0.00000000      30.29410442
W        7.96617311       1.59323462      31.88726599
W        6.37293849      -0.00000000      33.48042544
W        7.96617311       1.59323462      35.07358275
W        6.37293849       0.00000000      36.66670380
W        7.96617311       1.59323462      38.25987034
W        6.37293849      -0.00000000      39.85308855
W        7.96617311       1.59323462      41.44630372
W        6.37293849       0.00000000      43.03950199
W        7.96617311       1.59323462      44.63268388
W        6.37293849       0.00000000      46.22582552
W        7.96617311       1.59323462      47.81892772
W        6.37293849      -0.00000000      49.41208104
W        7.96617311       1.59323462      51.00525471
W        6.37293849       3.18646924       0.79657277
W        7.96617311       4.77970386       2.38974643
W        6.37293849       3.18646924       3.98289976
W        7.96617311       4.77970386       5.57600196
W        6.37293849       3.18646924       7.16914360
W        7.96617311       4.77970386       8.76232548
W        6.37293849       3.18646924      10.35552376
W        7.96617311       4.77970386      11.94873892
W        6.37293849       3.18646924      13.54195714
W        7.96617311       4.77970386      15.13512368
W        6.37293849       3.18646924      16.72824473
W        7.96617311       4.77970386      18.32140203
W        6.37293849       3.18646924      19.91456148
W        7.96617311       4.77970386      21.50772305
W        6.37293849       3.18646924      23.10092020
W        7.96617311       4.77970386      24.69409247
W        6.37293849       3.18646924      27.10773501
W        7.96617311       4.77970386      28.70090727
W        6.37293849       3.18646924      30.29410442
W        7.96617311       4.77970386      31.88726599
W        6.37293849       3.18646924      33.48042544
W        7.96617311       4.77970386      35.07358275
W        6.37293849       3.18646924      36.66670380
W        7.96617311       4.77970386      38.25987034
W        6.37293849       3.18646924      39.85308855
W        7.96617311       4.77970386      41.44630372
W        6.37293849       3.18646924      43.03950199
W        7.96617311       4.77970386      44.63268388
W        6.37293849       3.18646924      46.22582552
W        7.96617311       4.77970386      47.81892772
W        6.37293849       3.18646924      49.41208104
W        7.96617311       4.77970386      51.00525471
W        6.37293849       6.37293849       0.79657277
W        7.96617311       7.96617311       2.38974643
W        6.37293849       6.37293849       3.98289976
W        7.96617311       7.96617311       5.57600196
W        6.37293849       6.37293849       7.16914360
W        7.96617311       7.96617311       8.76232548
W        6.37293849       6.37293849      10.35552376
W        7.96617311       7.96617311      11.94873892
W        6.37293849       6.37293849      13.54195714
W        7.96617311       7.96617311      15.13512368
W        6.37293849       6.37293849      16.72824473
W        7.96617311       7.96617311      18.32140203
W        6.37293849       6.37293849      19.91456148
W        7.96617311       7.96617311      21.50772305
W        6.37293849       6.37293849      23.10092020
W        7.96617311       7.96617311      24.69409247
W        6.37293849       6.37293849      27.10773501
W        7.96617311       7.96617311      28.70090727
W        6.37293849       6.37293849      30.29410442
W        7.96617311       7.96617311      31.88726599
W        6.37293849       6.37293849      33.48042544
W        7.96617311       7.96617311      35.07358275
W        6.37293849       6.37293849      36.66670380
W        7.96617311       7.96617311      38.25987034
W        6.37293849       6.37293849      39.85308855
W        7.96617311       7.96617311      41.44630372
W        6.37293849       6.37293849      43.03950199
W        7.96617311       7.96617311      44.63268388
W        6.37293849       6.37293849      46.22582552
W        7.96617311       7.96617311      47.81892772
W        6.37293849       6.37293849      49.41208104
W        7.96617311       7.96617311      51.00525471
288
Lattice="9.559407728649656 -9.087318898702386e-18 2.3918883122634095e-17 -9.087318898702381e-18 9.559407728649656 -2.3057458068536844e-17 1.2294658829237918e-16 -1.138024128057971e-16 51.90439157720757" Properties=species:S:1:pos:R:3 vacuum_gap_Ang=0.923076923076923 frame_index=9 pbc="T T T"
W       -0.00000000       0.00000000       0.79657277
W        1.59323462       1.59323462       2.38974643
W       -0.00000000       0.00000000       3.98289976
W        1.59323462       1.59323462       5.57600196
W       -0.00000000       0.00000000       7.16914360
W        1.59323462       1.59323462       8.76232548
W        0.00000000      -0.00000000      10.35552376
W        1.59323462       1.59323462      11.94873892
W       -0.00000000       0.00000000      13.54195714
W        1.59323462       1.59323462      15.13512368
W        0.00000000       0.00000000      16.72824473
W        1.59323462       1.59323462      18.32140203
W        0.00000000       0.00000000      19.91456148
W        1.59323462       1.59323462      21.50772305
W        0.00000000       0.00000000      23.10092020
W        1.59323462       1.59323462      24.69409247
W       -0.00000000       0.00000000      27.21029911
W        1.59323462       1.59323462      28.80347137
W       -0.00000000       0.00000000      30.39666852
W        1.59323462       1.59323462      31.98983010
W        0.00000000      -0.00000000      33.58298954
W        1.59323462       1.59323462      35.17614685
W        0.00000000      -0.00000000      36.76926790
W        1.59323462       1.59323462      38.36243444
W       -0.00000000      -0.00000000      39.95565265
W        1.59323462       1.59323462      41.54886782
W        0.00000000      -0.00000000      43.14206610
W        1.59323462       1.59323462      44.73524798
W        0.00000000      -0.00000000      46.32838962
W        1.59323462       1.59323462      47.92149182
W        0.00000000       0.00000000      49.51464514
W        1.59323462       1.59323462      51.10781881
W        0.00000000       3.18646924       0.79657277
W        1.59323462       4.77970386       2.38974643
W        0.00000000       3.18646924       3.98289976
W        1.59323462       4.77970386       5.57600196
W       -0.00000000       3.18646924       7.16914360
W        1.59323462       4.77970386       8.76232548
W       -0.00000000       3.18646924      10.35552376
W        1.59323462       4.77970386      11.94873892
W       -0.00000000       3.18646924      13.54195714
W        1.59323462       4.77970386      15.13512368
W        0.00000000       3.18646924      16.72824473
W        1.59323462       4.77970386      18.32140203
W       -0.00000000       3.18646924      19.91456148
W        1.59323462       4.77970386      21.50772305
W        0.00000000       3.18646924      23.10092020
W        1.59323462       4.77970386      24.69409247
W        0.00000000       3.18646924      27.21029911
W        1.59323462       4.77970386      28.80347137
W       -0.00000000       3.18646924      30.39666852
W        1.59323462       4.77970386      31.98983010
W        0.00000000       3.18646924      33.58298954
W        1.59323462       4.77970386      35.17614685
W       -0.00000000       3.18646924      36.76926790
W        1.59323462       4.77970386      38.36243444
W        0.00000000       3.18646924      39.95565265
W        1.59323462       4.77970386      41.54886782
W       -0.00000000       3.18646924      43.14206610
W        1.59323462       4.77970386      44.73524798
W       -0.00000000       3.18646924      46.32838962
W        1.59323462       4.77970386      47.92149182
W        0.00000000       3.18646924      49.51464514
W        1.59323462       4.77970386      51.10781881
W       -0.00000000       6.37293849       0.79657277
W        1.59323462       7.96617311       2.38974643
W        0.00000000       6.37293849       3.98289976
W        1.59323462       7.96617311       5.57600196
W       -0.00000000       6.37293849       7.16914360
W        1.59323462       7.96617311       8.76232548
W        0.00000000       6.37293849      10.35552376
W        1.59323462       7.96617311      11.94873892
W       -0.00000000       6.37293849      13.54195714
W        1.59323462       7.96617311      15.13512368
W        0.00000000       6.37293849      16.72824473
W        1.59323462       7.96617311      18.32140203
W        0.00000000       6.37293849      19.91456148
W        1.59323462       7.96617311      21.50772305
W       -0.00000000       6.37293849      23.10092020
W        1.59323462       7.96617311      24.69409247
W       -0.00000000       6.37293849      27.21029911
W        1.59323462       7.96617311      28.80347137
W        0.00000000       6.37293849      30.39666852
W        1.59323462       7.96617311      31.98983010
W        0.00000000       6.37293849      33.58298954
W        1.59323462       7.96617311      35.17614685
W        0.00000000       6.37293849      36.76926790
W        1.59323462       7.96617311      38.36243444
W        0.00000000       6.37293849      39.95565265
W        1.59323462       7.96617311      41.54886782
W        0.00000000       6.37293849      43.14206610
W        1.59323462       7.96617311      44.73524798
W       -0.00000000       6.37293849      46.32838962
W        1.59323462       7.96617311      47.92149182
W        0.00000000       6.37293849      49.51464514
W        1.59323462       7.96617311      51.10781881
W        3.18646924       0.00000000       0.79657277
W        4.77970386       1.59323462       2.38974643
W        3.18646924      -0.00000000       3.98289976
W        4.77970386       1.59323462       5.57600196
W        3.18646924       0.00000000       7.16914360
W        4.77970386       1.59323462       8.76232548
W        3.18646924       0.00000000      10.35552376
W        4.77970386       1.59323462      11.94873892
W        3.18646924       0.00000000      13.54195714
W        4.77970386       1.59323462      15.13512368
W        3.18646924       0.00000000      16.72824473
W        4.77970386       1.59323462      18.32140203
W        3.18646924      -0.00000000      19.91456148
W        4.77970386       1.59323462      21.50772305
W        3.18646924       0.00000000      23.10092020
W        4.77970386       1.59323462      24.69409247
W        3.18646924       0.00000000      27.21029911
W        4.77970386       1.59323462      28.80347137
W        3.18646924      -0.00000000      30.39666852
W        4.77970386       1.59323462      31.98983010
W        3.18646924       0.00000000      33.58298954
W        4.77970386       1.59323462      35.17614685
W        3.18646924       0.00000000      36.76926790
W        4.77970386       1.59323462      38.36243444
W        3.18646924       0.00000000      39.95565265
W        4.77970386       1.59323462      41.54886782
W        3.18646924      -0.00000000      43.14206610
W        4.77970386       1.59323462      44.73524798
W        3.18646924       0.00000000      46.32838962
W        4.77970386       1.59323462      47.92149182
W        3.18646924       0.00000000      49.51464514
W        4.77970386       1.59323462      51.10781881
W        3.18646924       3.18646924       0.79657277
W        4.77970386       4.77970386       2.38974643
W        3.18646924       3.18646924       3.98289976
W        4.77970386       4.77970386       5.57600196
W        3.18646924       3.18646924       7.16914360
W        4.77970386       4.77970386       8.76232548
W        3.18646924       3.18646924      10.35552376
W        4.77970386       4.77970386      11.94873892
W        3.18646924       3.18646924      13.54195714
W        4.77970386       4.77970386      15.13512368
W        3.18646924       3.18646924      16.72824473
W        4.77970386       4.77970386      18.32140203
W        3.18646924       3.18646924      19.91456148
W        4.77970386       4.77970386      21.50772305
W        3.18646924       3.18646924      23.10092020
W        4.77970386       4.77970386      24.69409247
W        3.18646924       3.18646924      27.21029911
W        4.77970386       4.77970386      28.80347137
W        3.18646924       3.18646924      30.39666852
W        4.77970386       4.77970386      31.98983010
W        3.18646924       3.18646924      33.58298954
W        4.77970386       4.77970386      35.17614685
W        3.18646924       3.18646924      36.76926790
W        4.77970386       4.77970386      38.36243444
W        3.18646924       3.18646924      39.95565265
W        4.77970386       4.77970386      41.54886782
W        3.18646924       3.18646924      43.14206610
W        4.77970386       4.77970386      44.73524798
W        3.18646924       3.18646924      46.32838962
W        4.77970386       4.77970386      47.92149182
W        3.18646924       3.18646924      49.51464514
W        4.77970386       4.77970386      51.10781881
W        3.18646924       6.37293849       0.79657277
W        4.77970386       7.96617311       2.38974643
W        3.18646924       6.37293849       3.98289976
W        4.77970386       7.96617311       5.57600196
W        3.18646924       6.37293849       7.16914360
W        4.77970386       7.96617311       8.76232548
W        3.18646924       6.37293849      10.35552376
W        4.77970386       7.96617311      11.94873892
W        3.18646924       6.37293849      13.54195714
W        4.77970386       7.96617311      15.13512368
W        3.18646924       6.37293849      16.72824473
W        4.77970386       7.96617311      18.32140203
W        3.18646924       6.37293849      19.91456148
W        4.77970386       7.96617311      21.50772305
W        3.18646924       6.37293849      23.10092020
W        4.77970386       7.96617311      24.69409247
W        3.18646924       6.37293849      27.21029911
W        4.77970386       7.96617311      28.80347137
W        3.18646924       6.37293849      30.39666852
W        4.77970386       7.96617311      31.98983010
W        3.18646924       6.37293849      33.58298954
W        4.77970386       7.96617311      35.17614685
W        3.18646924       6.37293849      36.76926790
W        4.77970386       7.96617311      38.36243444
W        3.18646924       6.37293849      39.95565265
W        4.77970386       7.96617311      41.54886782
W        3.18646924       6.37293849      43.14206610
W        4.77970386       7.96617311      44.73524798
W        3.18646924       6.37293849      46.32838962
W        4.77970386       7.96617311      47.92149182
W        3.18646924       6.37293849      49.51464514
W        4.77970386       7.96617311      51.10781881
W        6.37293849       0.00000000       0.79657277
W        7.96617311       1.59323462       2.38974643
W        6.37293849       0.00000000       3.98289976
W        7.96617311       1.59323462       5.57600196
W        6.37293849       0.00000000       7.16914360
W        7.96617311       1.59323462       8.76232548
W        6.37293849      -0.00000000      10.35552376
W        7.96617311       1.59323462      11.94873892
W        6.37293849       0.00000000      13.54195714
W        7.96617311       1.59323462      15.13512368
W        6.37293849      -0.00000000      16.72824473
W        7.96617311       1.59323462      18.32140203
W        6.37293849       0.00000000      19.91456148
W        7.96617311       1.59323462      21.50772305
W        6.37293849       0.00000000      23.10092020
W        7.96617311       1.59323462      24.69409247
W        6.37293849       0.00000000      27.21029911
W        7.96617311       1.59323462      28.80347137
W        6.37293849       0.00000000      30.39666852
W        7.96617311       1.59323462      31.98983010
W        6.37293849      -0.00000000      33.58298954
W        7.96617311       1.59323462      35.17614685
W        6.37293849       0.00000000      36.76926790
W        7.96617311       1.59323462      38.36243444
W        6.37293849      -0.00000000      39.95565265
W        7.96617311       1.59323462      41.54886782
W        6.37293849       0.00000000      43.14206610
W        7.96617311       1.59323462      44.73524798
W        6.37293849       0.00000000      46.32838962
W        7.96617311       1.59323462      47.92149182
W        6.37293849      -0.00000000      49.51464514
W        7.96617311       1.59323462      51.10781881
W        6.37293849       3.18646924       0.79657277
W        7.96617311       4.77970386       2.38974643
W        6.37293849       3.18646924       3.98289976
W        7.96617311       4.77970386       5.57600196
W        6.37293849       3.18646924       7.16914360
W        7.96617311       4.77970386       8.76232548
W        6.37293849       3.18646924      10.35552376
W        7.96617311       4.77970386      11.94873892
W        6.37293849       3.18646924      13.54195714
W        7.96617311       4.77970386      15.13512368
W        6.37293849       3.18646924      16.72824473
W        7.96617311       4.77970386      18.32140203
W        6.37293849       3.18646924      19.91456148
W        7.96617311       4.77970386      21.50772305
W        6.37293849       3.18646924      23.10092020
W        7.96617311       4.77970386      24.69409247
W        6.37293849       3.18646924      27.21029911
W        7.96617311       4.77970386      28.80347137
W        6.37293849       3.18646924      30.39666852
W        7.96617311       4.77970386      31.98983010
W        6.37293849       3.18646924      33.58298954
W        7.96617311       4.77970386      35.17614685
W        6.37293849       3.18646924      36.76926790
W        7.96617311       4.77970386      38.36243444
W        6.37293849       3.18646924      39.95565265
W        7.96617311       4.77970386      41.54886782
W        6.37293849       3.18646924      43.14206610
W        7.96617311       4.77970386      44.73524798
W        6.37293849       3.18646924      46.32838962
W        7.96617311       4.77970386      47.92149182
W        6.37293849       3.18646924      49.51464514
W        7.96617311       4.77970386      51.10781881
W        6.37293849       6.37293849       0.79657277
W        7.96617311       7.96617311       2.38974643
W        6.37293849       6.37293849       3.98289976
W        7.96617311       7.96617311       5.57600196
W        6.37293849       6.37293849       7.16914360
W        7.96617311       7.96617311       8.76232548
W        6.37293849       6.37293849      10.35552376
W        7.96617311       7.96617311      11.94873892
W        6.37293849       6.37293849      13.54195714
W        7.96617311       7.96617311      15.13512368
W        6.37293849       6.37293849      16.72824473
W        7.96617311       7.96617311      18.32140203
W        6.37293849       6.37293849      19.91456148
W        7.96617311       7.96617311      21.50772305
W        6.37293849       6.37293849      23.10092020
W        7.96617311       7.96617311      24.69409247
W        6.37293849       6.37293849      27.21029911
W        7.96617311       7.96617311      28.80347137
W        6.37293849       6.37293849      30.39666852
W        7.96617311       7.96617311      31.98983010
W        6.37293849       6.37293849      33.58298954
W        7.96617311       7.96617311      35.17614685
W        6.37293849       6.37293849      36.76926790
W        7.96617311       7.96617311      38.36243444
W        6.37293849       6.37293849      39.95565265
W        7.96617311       7.96617311      41.54886782
W        6.37293849       6.37293849      43.14206610
W        7.96617311       7.96617311      44.73524798
W        6.37293849       6.37293849      46.32838962
W        7.96617311       7.96617311      47.92149182
W        6.37293849       6.37293849      49.51464514
W        7.96617311       7.96617311      51.10781881
288
Lattice="9.559407728649656 -9.087318898702386e-18 2.3918883122634095e-17 -9.087318898702381e-18 9.559407728649656 -2.3057458068536844e-17 1.2294658829237918e-16 -1.138024128057971e-16 52.00695567977168" Properties=species:S:1:pos:R:3 vacuum_gap_Ang=1.0256410256410255 frame_index=10 pbc="T T T"
W       -0.00000000       0.00000000       0.79657277
W        1.59323462       1.59323462       2.38974643
W       -0.00000000       0.00000000       3.98289976
W        1.59323462       1.59323462       5.57600196
W       -0.00000000       0.00000000       7.16914360
W        1.59323462       1.59323462       8.76232548
W        0.00000000      -0.00000000      10.35552376
W        1.59323462       1.59323462      11.94873892
W       -0.00000000       0.00000000      13.54195714
W        1.59323462       1.59323462      15.13512368
W        0.00000000       0.00000000      16.72824473
W        1.59323462       1.59323462      18.32140203
W        0.00000000       0.00000000      19.91456148
W        1.59323462       1.59323462      21.50772305
W        0.00000000       0.00000000      23.10092020
W        1.59323462       1.59323462      24.69409247
W       -0.00000000       0.00000000      27.31286321
W        1.59323462       1.59323462      28.90603547
W       -0.00000000       0.00000000      30.49923263
W        1.59323462       1.59323462      32.09239420
W        0.00000000      -0.00000000      33.68555365
W        1.59323462       1.59323462      35.27871095
W        0.00000000      -0.00000000      36.87183200
W        1.59323462       1.59323462      38.46499854
W       -0.00000000      -0.00000000      40.05821676
W        1.59323462       1.59323462      41.65143192
W        0.00000000      -0.00000000      43.24463020
W        1.59323462       1.59323462      44.83781208
W        0.00000000      -0.00000000      46.43095372
W        1.59323462       1.59323462      48.02405592
W        0.00000000       0.00000000      49.61720925
W        1.59323462       1.59323462      51.21038291
W        0.00000000       3.18646924       0.79657277
W        1.59323462       4.77970386       2.38974643
W        0.00000000       3.18646924       3.98289976
W        1.59323462       4.77970386       5.57600196
W       -0.00000000       3.18646924       7.16914360
W        1.59323462       4.77970386       8.76232548
W       -0.00000000       3.18646924      10.35552376
W        1.59323462       4.77970386      11.94873892
W       -0.00000000       3.18646924      13.54195714
W        1.59323462       4.77970386      15.13512368
W        0.00000000       3.18646924      16.72824473
W        1.59323462       4.77970386      18.32140203
W       -0.00000000       3.18646924      19.91456148
W        1.59323462       4.77970386      21.50772305
W        0.00000000       3.18646924      23.10092020
W        1.59323462       4.77970386      24.69409247
W        0.00000000       3.18646924      27.31286321
W        1.59323462       4.77970386      28.90603547
W       -0.00000000       3.18646924      30.49923263
W        1.59323462       4.77970386      32.09239420
W        0.00000000       3.18646924      33.68555365
W        1.59323462       4.77970386      35.27871095
W       -0.00000000       3.18646924      36.87183200
W        1.59323462       4.77970386      38.46499854
W        0.00000000       3.18646924      40.05821676
W        1.59323462       4.77970386      41.65143192
W       -0.00000000       3.18646924      43.24463020
W        1.59323462       4.77970386      44.83781208
W       -0.00000000       3.18646924      46.43095372
W        1.59323462       4.77970386      48.02405592
W        0.00000000       3.18646924      49.61720925
W        1.59323462       4.77970386      51.21038291
W       -0.00000000       6.37293849       0.79657277
W        1.59323462       7.96617311       2.38974643
W        0.00000000       6.37293849       3.98289976
W        1.59323462       7.96617311       5.57600196
W       -0.00000000       6.37293849       7.16914360
W        1.59323462       7.96617311       8.76232548
W        0.00000000       6.37293849      10.35552376
W        1.59323462       7.96617311      11.94873892
W       -0.00000000       6.37293849      13.54195714
W        1.59323462       7.96617311      15.13512368
W        0.00000000       6.37293849      16.72824473
W        1.59323462       7.96617311      18.32140203
W        0.00000000       6.37293849      19.91456148
W        1.59323462       7.96617311      21.50772305
W       -0.00000000       6.37293849      23.10092020
W        1.59323462       7.96617311      24.69409247
W       -0.00000000       6.37293849      27.31286321
W        1.59323462       7.96617311      28.90603547
W        0.00000000       6.37293849      30.49923263
W        1.59323462       7.96617311      32.09239420
W        0.00000000       6.37293849      33.68555365
W        1.59323462       7.96617311      35.27871095
W        0.00000000       6.37293849      36.87183200
W        1.59323462       7.96617311      38.46499854
W        0.00000000       6.37293849      40.05821676
W        1.59323462       7.96617311      41.65143192
W        0.00000000       6.37293849      43.24463020
W        1.59323462       7.96617311      44.83781208
W       -0.00000000       6.37293849      46.43095372
W        1.59323462       7.96617311      48.02405592
W        0.00000000       6.37293849      49.61720925
W        1.59323462       7.96617311      51.21038291
W        3.18646924       0.00000000       0.79657277
W        4.77970386       1.59323462       2.38974643
W        3.18646924      -0.00000000       3.98289976
W        4.77970386       1.59323462       5.57600196
W        3.18646924       0.00000000       7.16914360
W        4.77970386       1.59323462       8.76232548
W        3.18646924       0.00000000      10.35552376
W        4.77970386       1.59323462      11.94873892
W        3.18646924       0.00000000      13.54195714
W        4.77970386       1.59323462      15.13512368
W        3.18646924       0.00000000      16.72824473
W        4.77970386       1.59323462      18.32140203
W        3.18646924      -0.00000000      19.91456148
W        4.77970386       1.59323462      21.50772305
W        3.18646924       0.00000000      23.10092020
W        4.77970386       1.59323462      24.69409247
W        3.18646924       0.00000000      27.31286321
W        4.77970386       1.59323462      28.90603547
W        3.18646924      -0.00000000      30.49923263
W        4.77970386       1.59323462      32.09239420
W        3.18646924       0.00000000      33.68555365
W        4.77970386       1.59323462      35.27871095
W        3.18646924       0.00000000      36.87183200
W        4.77970386       1.59323462      38.46499854
W        3.18646924       0.00000000      40.05821676
W        4.77970386       1.59323462      41.65143192
W        3.18646924      -0.00000000      43.24463020
W        4.77970386       1.59323462      44.83781208
W        3.18646924       0.00000000      46.43095372
W        4.77970386       1.59323462      48.02405592
W        3.18646924       0.00000000      49.61720925
W        4.77970386       1.59323462      51.21038291
W        3.18646924       3.18646924       0.79657277
W        4.77970386       4.77970386       2.38974643
W        3.18646924       3.18646924       3.98289976
W        4.77970386       4.77970386       5.57600196
W        3.18646924       3.18646924       7.16914360
W        4.77970386       4.77970386       8.76232548
W        3.18646924       3.18646924      10.35552376
W        4.77970386       4.77970386      11.94873892
W        3.18646924       3.18646924      13.54195714
W        4.77970386       4.77970386      15.13512368
W        3.18646924       3.18646924      16.72824473
W        4.77970386       4.77970386      18.32140203
W        3.18646924       3.18646924      19.91456148
W        4.77970386       4.77970386      21.50772305
W        3.18646924       3.18646924      23.10092020
W        4.77970386       4.77970386      24.69409247
W        3.18646924       3.18646924      27.31286321
W        4.77970386       4.77970386      28.90603547
W        3.18646924       3.18646924      30.49923263
W        4.77970386       4.77970386      32.09239420
W        3.18646924       3.18646924      33.68555365
W        4.77970386       4.77970386      35.27871095
W        3.18646924       3.18646924      36.87183200
W        4.77970386       4.77970386      38.46499854
W        3.18646924       3.18646924      40.05821676
W        4.77970386       4.77970386      41.65143192
W        3.18646924       3.18646924      43.24463020
W        4.77970386       4.77970386      44.83781208
W        3.18646924       3.18646924      46.43095372
W        4.77970386       4.77970386      48.02405592
W        3.18646924       3.18646924      49.61720925
W        4.77970386       4.77970386      51.21038291
W        3.18646924       6.37293849       0.79657277
W        4.77970386       7.96617311       2.38974643
W        3.18646924       6.37293849       3.98289976
W        4.77970386       7.96617311       5.57600196
W        3.18646924       6.37293849       7.16914360
W        4.77970386       7.96617311       8.76232548
W        3.18646924       6.37293849      10.35552376
W        4.77970386       7.96617311      11.94873892
W        3.18646924       6.37293849      13.54195714
W        4.77970386       7.96617311      15.13512368
W        3.18646924       6.37293849      16.72824473
W        4.77970386       7.96617311      18.32140203
W        3.18646924       6.37293849      19.91456148
W        4.77970386       7.96617311      21.50772305
W        3.18646924       6.37293849      23.10092020
W        4.77970386       7.96617311      24.69409247
W        3.18646924       6.37293849      27.31286321
W        4.77970386       7.96617311      28.90603547
W        3.18646924       6.37293849      30.49923263
W        4.77970386       7.96617311      32.09239420
W        3.18646924       6.37293849      33.68555365
W        4.77970386       7.96617311      35.27871095
W        3.18646924       6.37293849      36.87183200
W        4.77970386       7.96617311      38.46499854
W        3.18646924       6.37293849      40.05821676
W        4.77970386       7.96617311      41.65143192
W        3.18646924       6.37293849      43.24463020
W        4.77970386       7.96617311      44.83781208
W        3.18646924       6.37293849      46.43095372
W        4.77970386       7.96617311      48.02405592
W        3.18646924       6.37293849      49.61720925
W        4.77970386       7.96617311      51.21038291
W        6.37293849       0.00000000       0.79657277
W        7.96617311       1.59323462       2.38974643
W        6.37293849       0.00000000       3.98289976
W        7.96617311       1.59323462       5.57600196
W        6.37293849       0.00000000       7.16914360
W        7.96617311       1.59323462       8.76232548
W        6.37293849      -0.00000000      10.35552376
W        7.96617311       1.59323462      11.94873892
W        6.37293849       0.00000000      13.54195714
W        7.96617311       1.59323462      15.13512368
W        6.37293849      -0.00000000      16.72824473
W        7.96617311       1.59323462      18.32140203
W        6.37293849       0.00000000      19.91456148
W        7.96617311       1.59323462      21.50772305
W        6.37293849       0.00000000      23.10092020
W        7.96617311       1.59323462      24.69409247
W        6.37293849       0.00000000      27.31286321
W        7.96617311       1.59323462      28.90603547
W        6.37293849       0.00000000      30.49923263
W        7.96617311       1.59323462      32.09239420
W        6.37293849      -0.00000000      33.68555365
W        7.96617311       1.59323462      35.27871095
W        6.37293849       0.00000000      36.87183200
W        7.96617311       1.59323462      38.46499854
W        6.37293849      -0.00000000      40.05821676
W        7.96617311       1.59323462      41.65143192
W        6.37293849       0.00000000      43.24463020
W        7.96617311       1.59323462      44.83781208
W        6.37293849       0.00000000      46.43095372
W        7.96617311       1.59323462      48.02405592
W        6.37293849      -0.00000000      49.61720925
W        7.96617311       1.59323462      51.21038291
W        6.37293849       3.18646924       0.79657277
W        7.96617311       4.77970386       2.38974643
W        6.37293849       3.18646924       3.98289976
W        7.96617311       4.77970386       5.57600196
W        6.37293849       3.18646924       7.16914360
W        7.96617311       4.77970386       8.76232548
W        6.37293849       3.18646924      10.35552376
W        7.96617311       4.77970386      11.94873892
W        6.37293849       3.18646924      13.54195714
W        7.96617311       4.77970386      15.13512368
W        6.37293849       3.18646924      16.72824473
W        7.96617311       4.77970386      18.32140203
W        6.37293849       3.18646924      19.91456148
W        7.96617311       4.77970386      21.50772305
W        6.37293849       3.18646924      23.10092020
W        7.96617311       4.77970386      24.69409247
W        6.37293849       3.18646924      27.31286321
W        7.96617311       4.77970386      28.90603547
W        6.37293849       3.18646924      30.49923263
W        7.96617311       4.77970386      32.09239420
W        6.37293849       3.18646924      33.68555365
W        7.96617311       4.77970386      35.27871095
W        6.37293849       3.18646924      36.87183200
W        7.96617311       4.77970386      38.46499854
W        6.37293849       3.18646924      40.05821676
W        7.96617311       4.77970386      41.65143192
W        6.37293849       3.18646924      43.24463020
W        7.96617311       4.77970386      44.83781208
W        6.37293849       3.18646924      46.43095372
W        7.96617311       4.77970386      48.02405592
W        6.37293849       3.18646924      49.61720925
W        7.96617311       4.77970386      51.21038291
W        6.37293849       6.37293849       0.79657277
W        7.96617311       7.96617311       2.38974643
W        6.37293849       6.37293849       3.98289976
W        7.96617311       7.96617311       5.57600196
W        6.37293849       6.37293849       7.16914360
W        7.96617311       7.96617311       8.76232548
W        6.37293849       6.37293849      10.35552376
W        7.96617311       7.96617311      11.94873892
W        6.37293849       6.37293849      13.54195714
W        7.96617311       7.96617311      15.13512368
W        6.37293849       6.37293849      16.72824473
W        7.96617311       7.96617311      18.32140203
W        6.37293849       6.37293849      19.91456148
W        7.96617311       7.96617311      21.50772305
W        6.37293849       6.37293849      23.10092020
W        7.96617311       7.96617311      24.69409247
W        6.37293849       6.37293849      27.31286321
W        7.96617311       7.96617311      28.90603547
W        6.37293849       6.37293849      30.49923263
W        7.96617311       7.96617311      32.09239420
W        6.37293849       6.37293849      33.68555365
W        7.96617311       7.96617311      35.27871095
W        6.37293849       6.37293849      36.87183200
W        7.96617311       7.96617311      38.46499854
W        6.37293849       6.37293849      40.05821676
W        7.96617311       7.96617311      41.65143192
W        6.37293849       6.37293849      43.24463020
W        7.96617311       7.96617311      44.83781208
W        6.37293849       6.37293849      46.43095372
W        7.96617311       7.96617311      48.02405592
W        6.37293849       6.37293849      49.61720925
W        7.96617311       7.96617311      51.21038291
288
Lattice="9.559407728649656 -9.087318898702386e-18 2.3918883122634095e-17 -9.087318898702381e-18 9.559407728649656 -2.3057458068536844e-17 1.2294658829237918e-16 -1.138024128057971e-16 52.10951978233578" Properties=species:S:1:pos:R:3 vacuum_gap_Ang=1.1282051282051282 frame_index=11 pbc="T T T"
W       -0.00000000       0.00000000       0.79657277
W        1.59323462       1.59323462       2.38974643
W       -0.00000000       0.00000000       3.98289976
W        1.59323462       1.59323462       5.57600196
W       -0.00000000       0.00000000       7.16914360
W        1.59323462       1.59323462       8.76232548
W        0.00000000      -0.00000000      10.35552376
W        1.59323462       1.59323462      11.94873892
W       -0.00000000       0.00000000      13.54195714
W        1.59323462       1.59323462      15.13512368
W        0.00000000       0.00000000      16.72824473
W        1.59323462       1.59323462      18.32140203
W        0.00000000       0.00000000      19.91456148
W        1.59323462       1.59323462      21.50772305
W        0.00000000       0.00000000      23.10092020
W        1.59323462       1.59323462      24.69409247
W       -0.00000000       0.00000000      27.41542732
W        1.59323462       1.59323462      29.00859958
W       -0.00000000       0.00000000      30.60179673
W        1.59323462       1.59323462      32.19495830
W        0.00000000      -0.00000000      33.78811775
W        1.59323462       1.59323462      35.38127505
W        0.00000000      -0.00000000      36.97439610
W        1.59323462       1.59323462      38.56756264
W       -0.00000000      -0.00000000      40.16078086
W        1.59323462       1.59323462      41.75399602
W        0.00000000      -0.00000000      43.34719430
W        1.59323462       1.59323462      44.94037618
W        0.00000000      -0.00000000      46.53351782
W        1.59323462       1.59323462      48.12662002
W        0.00000000       0.00000000      49.71977335
W        1.59323462       1.59323462      51.31294701
W        0.00000000       3.18646924       0.79657277
W        1.59323462       4.77970386       2.38974643
W        0.00000000       3.18646924       3.98289976
W        1.59323462       4.77970386       5.57600196
W       -0.00000000       3.18646924       7.16914360
W        1.59323462       4.77970386       8.76232548
W       -0.00000000       3.18646924      10.35552376
W        1.59323462       4.77970386      11.94873892
W       -0.00000000       3.18646924      13.54195714
W        1.59323462       4.77970386      15.13512368
W        0.00000000       3.18646924      16.72824473
W        1.59323462       4.77970386      18.32140203
W       -0.00000000       3.18646924      19.91456148
W        1.59323462       4.77970386      21.50772305
W        0.00000000       3.18646924      23.10092020
W        1.59323462       4.77970386      24.69409247
W        0.00000000       3.18646924      27.41542732
W        1.59323462       4.77970386      29.00859958
W       -0.00000000       3.18646924      30.60179673
W        1.59323462       4.77970386      32.19495830
W        0.00000000       3.18646924      33.78811775
W        1.59323462       4.77970386      35.38127505
W       -0.00000000       3.18646924      36.97439610
W        1.59323462       4.77970386      38.56756264
W        0.00000000       3.18646924      40.16078086
W        1.59323462       4.77970386      41.75399602
W       -0.00000000       3.18646924      43.34719430
W        1.59323462       4.77970386      44.94037618
W       -0.00000000       3.18646924      46.53351782
W        1.59323462       4.77970386      48.12662002
W        0.00000000       3.18646924      49.71977335
W        1.59323462       4.77970386      51.31294701
W       -0.00000000       6.37293849       0.79657277
W        1.59323462       7.96617311       2.38974643
W        0.00000000       6.37293849       3.98289976
W        1.59323462       7.96617311       5.57600196
W       -0.00000000       6.37293849       7.16914360
W        1.59323462       7.96617311       8.76232548
W        0.00000000       6.37293849      10.35552376
W        1.59323462       7.96617311      11.94873892
W       -0.00000000       6.37293849      13.54195714
W        1.59323462       7.96617311      15.13512368
W        0.00000000       6.37293849      16.72824473
W        1.59323462       7.96617311      18.32140203
W        0.00000000       6.37293849      19.91456148
W        1.59323462       7.96617311      21.50772305
W       -0.00000000       6.37293849      23.10092020
W        1.59323462       7.96617311      24.69409247
W       -0.00000000       6.37293849      27.41542732
W        1.59323462       7.96617311      29.00859958
W        0.00000000       6.37293849      30.60179673
W        1.59323462       7.96617311      32.19495830
W        0.00000000       6.37293849      33.78811775
W        1.59323462       7.96617311      35.38127505
W        0.00000000       6.37293849      36.97439610
W        1.59323462       7.96617311      38.56756264
W        0.00000000       6.37293849      40.16078086
W        1.59323462       7.96617311      41.75399602
W        0.00000000       6.37293849      43.34719430
W        1.59323462       7.96617311      44.94037618
W       -0.00000000       6.37293849      46.53351782
W        1.59323462       7.96617311      48.12662002
W        0.00000000       6.37293849      49.71977335
W        1.59323462       7.96617311      51.31294701
W        3.18646924       0.00000000       0.79657277
W        4.77970386       1.59323462       2.38974643
W        3.18646924      -0.00000000       3.98289976
W        4.77970386       1.59323462       5.57600196
W        3.18646924       0.00000000       7.16914360
W        4.77970386       1.59323462       8.76232548
W        3.18646924       0.00000000      10.35552376
W        4.77970386       1.59323462      11.94873892
W        3.18646924       0.00000000      13.54195714
W        4.77970386       1.59323462      15.13512368
W        3.18646924       0.00000000      16.72824473
W        4.77970386       1.59323462      18.32140203
W        3.18646924      -0.00000000      19.91456148
W        4.77970386       1.59323462      21.50772305
W        3.18646924       0.00000000      23.10092020
W        4.77970386       1.59323462      24.69409247
W        3.18646924       0.00000000      27.41542732
W        4.77970386       1.59323462      29.00859958
W        3.18646924      -0.00000000      30.60179673
W        4.77970386       1.59323462      32.19495830
W        3.18646924       0.00000000      33.78811775
W        4.77970386       1.59323462      35.38127505
W        3.18646924       0.00000000      36.97439610
W        4.77970386       1.59323462      38.56756264
W        3.18646924       0.00000000      40.16078086
W        4.77970386       1.59323462      41.75399602
W        3.18646924      -0.00000000      43.34719430
W        4.77970386       1.59323462      44.94037618
W        3.18646924       0.00000000      46.53351782
W        4.77970386       1.59323462      48.12662002
W        3.18646924       0.00000000      49.71977335
W        4.77970386       1.59323462      51.31294701
W        3.18646924       3.18646924       0.79657277
W        4.77970386       4.77970386       2.38974643
W        3.18646924       3.18646924       3.98289976
W        4.77970386       4.77970386       5.57600196
W        3.18646924       3.18646924       7.16914360
W        4.77970386       4.77970386       8.76232548
W        3.18646924       3.18646924      10.35552376
W        4.77970386       4.77970386      11.94873892
W        3.18646924       3.18646924      13.54195714
W        4.77970386       4.77970386      15.13512368
W        3.18646924       3.18646924      16.72824473
W        4.77970386       4.77970386      18.32140203
W        3.18646924       3.18646924      19.91456148
W        4.77970386       4.77970386      21.50772305
W        3.18646924       3.18646924      23.10092020
W        4.77970386       4.77970386      24.69409247
W        3.18646924       3.18646924      27.41542732
W        4.77970386       4.77970386      29.00859958
W        3.18646924       3.18646924      30.60179673
W        4.77970386       4.77970386      32.19495830
W        3.18646924       3.18646924      33.78811775
W        4.77970386       4.77970386      35.38127505
W        3.18646924       3.18646924      36.97439610
W        4.77970386       4.77970386      38.56756264
W        3.18646924       3.18646924      40.16078086
W        4.77970386       4.77970386      41.75399602
W        3.18646924       3.18646924      43.34719430
W        4.77970386       4.77970386      44.94037618
W        3.18646924       3.18646924      46.53351782
W        4.77970386       4.77970386      48.12662002
W        3.18646924       3.18646924      49.71977335
W        4.77970386       4.77970386      51.31294701
W        3.18646924       6.37293849       0.79657277
W        4.77970386       7.96617311       2.38974643
W        3.18646924       6.37293849       3.98289976
W        4.77970386       7.96617311       5.57600196
W        3.18646924       6.37293849       7.16914360
W        4.77970386       7.96617311       8.76232548
W        3.18646924       6.37293849      10.35552376
W        4.77970386       7.96617311      11.94873892
W        3.18646924       6.37293849      13.54195714
W        4.77970386       7.96617311      15.13512368
W        3.18646924       6.37293849      16.72824473
W        4.77970386       7.96617311      18.32140203
W        3.18646924       6.37293849      19.91456148
W        4.77970386       7.96617311      21.50772305
W        3.18646924       6.37293849      23.10092020
W        4.77970386       7.96617311      24.69409247
W        3.18646924       6.37293849      27.41542732
W        4.77970386       7.96617311      29.00859958
W        3.18646924       6.37293849      30.60179673
W        4.77970386       7.96617311      32.19495830
W        3.18646924       6.37293849      33.78811775
W        4.77970386       7.96617311      35.38127505
W        3.18646924       6.37293849      36.97439610
W        4.77970386       7.96617311      38.56756264
W        3.18646924       6.37293849      40.16078086
W        4.77970386       7.96617311      41.75399602
W        3.18646924       6.37293849      43.34719430
W        4.77970386       7.96617311      44.94037618
W        3.18646924       6.37293849      46.53351782
W        4.77970386       7.96617311      48.12662002
W        3.18646924       6.37293849      49.71977335
W        4.77970386       7.96617311      51.31294701
W        6.37293849       0.00000000       0.79657277
W        7.96617311       1.59323462       2.38974643
W        6.37293849       0.00000000       3.98289976
W        7.96617311       1.59323462       5.57600196
W        6.37293849       0.00000000       7.16914360
W        7.96617311       1.59323462       8.76232548
W        6.37293849      -0.00000000      10.35552376
W        7.96617311       1.59323462      11.94873892
W        6.37293849       0.00000000      13.54195714
W        7.96617311       1.59323462      15.13512368
W        6.37293849      -0.00000000      16.72824473
W        7.96617311       1.59323462      18.32140203
W        6.37293849       0.00000000      19.91456148
W        7.96617311       1.59323462      21.50772305
W        6.37293849       0.00000000      23.10092020
W        7.96617311       1.59323462      24.69409247
W        6.37293849       0.00000000      27.41542732
W        7.96617311       1.59323462      29.00859958
W        6.37293849       0.00000000      30.60179673
W        7.96617311       1.59323462      32.19495830
W        6.37293849      -0.00000000      33.78811775
W        7.96617311       1.59323462      35.38127505
W        6.37293849       0.00000000      36.97439610
W        7.96617311       1.59323462      38.56756264
W        6.37293849      -0.00000000      40.16078086
W        7.96617311       1.59323462      41.75399602
W        6.37293849       0.00000000      43.34719430
W        7.96617311       1.59323462      44.94037618
W        6.37293849       0.00000000      46.53351782
W        7.96617311       1.59323462      48.12662002
W        6.37293849      -0.00000000      49.71977335
W        7.96617311       1.59323462      51.31294701
W        6.37293849       3.18646924       0.79657277
W        7.96617311       4.77970386       2.38974643
W        6.37293849       3.18646924       3.98289976
W        7.96617311       4.77970386       5.57600196
W        6.37293849       3.18646924       7.16914360
W        7.96617311       4.77970386       8.76232548
W        6.37293849       3.18646924      10.35552376
W        7.96617311       4.77970386      11.94873892
W        6.37293849       3.18646924      13.54195714
W        7.96617311       4.77970386      15.13512368
W        6.37293849       3.18646924      16.72824473
W        7.96617311       4.77970386      18.32140203
W        6.37293849       3.18646924      19.91456148
W        7.96617311       4.77970386      21.50772305
W        6.37293849       3.18646924      23.10092020
W        7.96617311       4.77970386      24.69409247
W        6.37293849       3.18646924      27.41542732
W        7.96617311       4.77970386      29.00859958
W        6.37293849       3.18646924      30.60179673
W        7.96617311       4.77970386      32.19495830
W        6.37293849       3.18646924      33.78811775
W        7.96617311       4.77970386      35.38127505
W        6.37293849       3.18646924      36.97439610
W        7.96617311       4.77970386      38.56756264
W        6.37293849       3.18646924      40.16078086
W        7.96617311       4.77970386      41.75399602
W        6.37293849       3.18646924      43.34719430
W        7.96617311       4.77970386      44.94037618
W        6.37293849       3.18646924      46.53351782
W        7.96617311       4.77970386      48.12662002
W        6.37293849       3.18646924      49.71977335
W        7.96617311       4.77970386      51.31294701
W        6.37293849       6.37293849       0.79657277
W        7.96617311       7.96617311       2.38974643
W        6.37293849       6.37293849       3.98289976
W        7.96617311       7.96617311       5.57600196
W        6.37293849       6.37293849       7.16914360
W        7.96617311       7.96617311       8.76232548
W        6.37293849       6.37293849      10.35552376
W        7.96617311       7.96617311      11.94873892
W        6.37293849       6.37293849      13.54195714
W        7.96617311       7.96617311      15.13512368
W        6.37293849       6.37293849      16.72824473
W        7.96617311       7.96617311      18.32140203
W        6.37293849       6.37293849      19.91456148
W        7.96617311       7.96617311      21.50772305
W        6.37293849       6.37293849      23.10092020
W        7.96617311       7.96617311      24.69409247
W        6.37293849       6.37293849      27.41542732
W        7.96617311       7.96617311      29.00859958
W        6.37293849       6.37293849      30.60179673
W        7.96617311       7.96617311      32.19495830
W        6.37293849       6.37293849      33.78811775
W        7.96617311       7.96617311      35.38127505
W        6.37293849       6.37293849      36.97439610
W        7.96617311       7.96617311      38.56756264
W        6.37293849       6.37293849      40.16078086
W        7.96617311       7.96617311      41.75399602
W        6.37293849       6.37293849      43.34719430
W        7.96617311       7.96617311      44.94037618
W        6.37293849       6.37293849      46.53351782
W        7.96617311       7.96617311      48.12662002
W        6.37293849       6.37293849      49.71977335
W        7.96617311       7.96617311      51.31294701
288
Lattice="9.559407728649656 -9.087318898702386e-18 2.3918883122634095e-17 -9.087318898702381e-18 9.559407728649656 -2.3057458068536844e-17 1.2294658829237918e-16 -1.138024128057971e-16 52.21208388489988" Properties=species:S:1:pos:R:3 vacuum_gap_Ang=1.2307692307692308 frame_index=12 pbc="T T T"
W       -0.00000000       0.00000000       0.79657277
W        1.59323462       1.59323462       2.38974643
W       -0.00000000       0.00000000       3.98289976
W        1.59323462       1.59323462       5.57600196
W       -0.00000000       0.00000000       7.16914360
W        1.59323462       1.59323462       8.76232548
W        0.00000000      -0.00000000      10.35552376
W        1.59323462       1.59323462      11.94873892
W       -0.00000000       0.00000000      13.54195714
W        1.59323462       1.59323462      15.13512368
W        0.00000000       0.00000000      16.72824473
W        1.59323462       1.59323462      18.32140203
W        0.00000000       0.00000000      19.91456148
W        1.59323462       1.59323462      21.50772305
W        0.00000000       0.00000000      23.10092020
W        1.59323462       1.59323462      24.69409247
W       -0.00000000       0.00000000      27.51799142
W        1.59323462       1.59323462      29.11116368
W       -0.00000000       0.00000000      30.70436083
W        1.59323462       1.59323462      32.29752240
W        0.00000000      -0.00000000      33.89068185
W        1.59323462       1.59323462      35.48383916
W        0.00000000      -0.00000000      37.07696021
W        1.59323462       1.59323462      38.67012675
W       -0.00000000      -0.00000000      40.26334496
W        1.59323462       1.59323462      41.85656013
W        0.00000000      -0.00000000      43.44975840
W        1.59323462       1.59323462      45.04294029
W        0.00000000      -0.00000000      46.63608193
W        1.59323462       1.59323462      48.22918413
W        0.00000000       0.00000000      49.82233745
W        1.59323462       1.59323462      51.41551112
W        0.00000000       3.18646924       0.79657277
W        1.59323462       4.77970386       2.38974643
W        0.00000000       3.18646924       3.98289976
W        1.59323462       4.77970386       5.57600196
W       -0.00000000       3.18646924       7.16914360
W        1.59323462       4.77970386       8.76232548
W       -0.00000000       3.18646924      10.35552376
W        1.59323462       4.77970386      11.94873892
W       -0.00000000       3.18646924      13.54195714
W        1.59323462       4.77970386      15.13512368
W        0.00000000       3.18646924      16.72824473
W        1.59323462       4.77970386      18.32140203
W       -0.00000000       3.18646924      19.91456148
W        1.59323462       4.77970386      21.50772305
W        0.00000000       3.18646924      23.10092020
W        1.59323462       4.77970386      24.69409247
W        0.00000000       3.18646924      27.51799142
W        1.59323462       4.77970386      29.11116368
W       -0.00000000       3.18646924      30.70436083
W        1.59323462       4.77970386      32.29752240
W        0.00000000       3.18646924      33.89068185
W        1.59323462       4.77970386      35.48383916
W       -0.00000000       3.18646924      37.07696021
W        1.59323462       4.77970386      38.67012675
W        0.00000000       3.18646924      40.26334496
W        1.59323462       4.77970386      41.85656013
W       -0.00000000       3.18646924      43.44975840
W        1.59323462       4.77970386      45.04294029
W       -0.00000000       3.18646924      46.63608193
W        1.59323462       4.77970386      48.22918413
W        0.00000000       3.18646924      49.82233745
W        1.59323462       4.77970386      51.41551112
W       -0.00000000       6.37293849       0.79657277
W        1.59323462       7.96617311       2.38974643
W        0.00000000       6.37293849       3.98289976
W        1.59323462       7.96617311       5.57600196
W       -0.00000000       6.37293849       7.16914360
W        1.59323462       7.96617311       8.76232548
W        0.00000000       6.37293849      10.35552376
W        1.59323462       7.96617311      11.94873892
W       -0.00000000       6.37293849      13.54195714
W        1.59323462       7.96617311      15.13512368
W        0.00000000       6.37293849      16.72824473
W        1.59323462       7.96617311      18.32140203
W        0.00000000       6.37293849      19.91456148
W        1.59323462       7.96617311      21.50772305
W       -0.00000000       6.37293849      23.10092020
W        1.59323462       7.96617311      24.69409247
W       -0.00000000       6.37293849      27.51799142
W        1.59323462       7.96617311      29.11116368
W        0.00000000       6.37293849      30.70436083
W        1.59323462       7.96617311      32.29752240
W        0.00000000       6.37293849      33.89068185
W        1.59323462       7.96617311      35.48383916
W        0.00000000       6.37293849      37.07696021
W        1.59323462       7.96617311      38.67012675
W        0.00000000       6.37293849      40.26334496
W        1.59323462       7.96617311      41.85656013
W        0.00000000       6.37293849      43.44975840
W        1.59323462       7.96617311      45.04294029
W       -0.00000000       6.37293849      46.63608193
W        1.59323462       7.96617311      48.22918413
W        0.00000000       6.37293849      49.82233745
W        1.59323462       7.96617311      51.41551112
W        3.18646924       0.00000000       0.79657277
W        4.77970386       1.59323462       2.38974643
W        3.18646924      -0.00000000       3.98289976
W        4.77970386       1.59323462       5.57600196
W        3.18646924       0.00000000       7.16914360
W        4.77970386       1.59323462       8.76232548
W        3.18646924       0.00000000      10.35552376
W        4.77970386       1.59323462      11.94873892
W        3.18646924       0.00000000      13.54195714
W        4.77970386       1.59323462      15.13512368
W        3.18646924       0.00000000      16.72824473
W        4.77970386       1.59323462      18.32140203
W        3.18646924      -0.00000000      19.91456148
W        4.77970386       1.59323462      21.50772305
W        3.18646924       0.00000000      23.10092020
W        4.77970386       1.59323462      24.69409247
W        3.18646924       0.00000000      27.51799142
W        4.77970386       1.59323462      29.11116368
W        3.18646924      -0.00000000      30.70436083
W        4.77970386       1.59323462      32.29752240
W        3.18646924       0.00000000      33.89068185
W        4.77970386       1.59323462      35.48383916
W        3.18646924       0.00000000      37.07696021
W        4.77970386       1.59323462      38.67012675
W        3.18646924       0.00000000      40.26334496
W        4.77970386       1.59323462      41.85656013
W        3.18646924      -0.00000000      43.44975840
W        4.77970386       1.59323462      45.04294029
W        3.18646924       0.00000000      46.63608193
W        4.77970386       1.59323462      48.22918413
W        3.18646924       0.00000000      49.82233745
W        4.77970386       1.59323462      51.41551112
W        3.18646924       3.18646924       0.79657277
W        4.77970386       4.77970386       2.38974643
W        3.18646924       3.18646924       3.98289976
W        4.77970386       4.77970386       5.57600196
W        3.18646924       3.18646924       7.16914360
W        4.77970386       4.77970386       8.76232548
W        3.18646924       3.18646924      10.35552376
W        4.77970386       4.77970386      11.94873892
W        3.18646924       3.18646924      13.54195714
W        4.77970386       4.77970386      15.13512368
W        3.18646924       3.18646924      16.72824473
W        4.77970386       4.77970386      18.32140203
W        3.18646924       3.18646924      19.91456148
W        4.77970386       4.77970386      21.50772305
W        3.18646924       3.18646924      23.10092020
W        4.77970386       4.77970386      24.69409247
W        3.18646924       3.18646924      27.51799142
W        4.77970386       4.77970386      29.11116368
W        3.18646924       3.18646924      30.70436083
W        4.77970386       4.77970386      32.29752240
W        3.18646924       3.18646924      33.89068185
W        4.77970386       4.77970386      35.48383916
W        3.18646924       3.18646924      37.07696021
W        4.77970386       4.77970386      38.67012675
W        3.18646924       3.18646924      40.26334496
W        4.77970386       4.77970386      41.85656013
W        3.18646924       3.18646924      43.44975840
W        4.77970386       4.77970386      45.04294029
W        3.18646924       3.18646924      46.63608193
W        4.77970386       4.77970386      48.22918413
W        3.18646924       3.18646924      49.82233745
W        4.77970386       4.77970386      51.41551112
W        3.18646924       6.37293849       0.79657277
W        4.77970386       7.96617311       2.38974643
W        3.18646924       6.37293849       3.98289976
W        4.77970386       7.96617311       5.57600196
W        3.18646924       6.37293849       7.16914360
W        4.77970386       7.96617311       8.76232548
W        3.18646924       6.37293849      10.35552376
W        4.77970386       7.96617311      11.94873892
W        3.18646924       6.37293849      13.54195714
W        4.77970386       7.96617311      15.13512368
W        3.18646924       6.37293849      16.72824473
W        4.77970386       7.96617311      18.32140203
W        3.18646924       6.37293849      19.91456148
W        4.77970386       7.96617311      21.50772305
W        3.18646924       6.37293849      23.10092020
W        4.77970386       7.96617311      24.69409247
W        3.18646924       6.37293849      27.51799142
W        4.77970386       7.96617311      29.11116368
W        3.18646924       6.37293849      30.70436083
W        4.77970386       7.96617311      32.29752240
W        3.18646924       6.37293849      33.89068185
W        4.77970386       7.96617311      35.48383916
W        3.18646924       6.37293849      37.07696021
W        4.77970386       7.96617311      38.67012675
W        3.18646924       6.37293849      40.26334496
W        4.77970386       7.96617311      41.85656013
W        3.18646924       6.37293849      43.44975840
W        4.77970386       7.96617311      45.04294029
W        3.18646924       6.37293849      46.63608193
W        4.77970386       7.96617311      48.22918413
W        3.18646924       6.37293849      49.82233745
W        4.77970386       7.96617311      51.41551112
W        6.37293849       0.00000000       0.79657277
W        7.96617311       1.59323462       2.38974643
W        6.37293849       0.00000000       3.98289976
W        7.96617311       1.59323462       5.57600196
W        6.37293849       0.00000000       7.16914360
W        7.96617311       1.59323462       8.76232548
W        6.37293849      -0.00000000      10.35552376
W        7.96617311       1.59323462      11.94873892
W        6.37293849       0.00000000      13.54195714
W        7.96617311       1.59323462      15.13512368
W        6.37293849      -0.00000000      16.72824473
W        7.96617311       1.59323462      18.32140203
W        6.37293849       0.00000000      19.91456148
W        7.96617311       1.59323462      21.50772305
W        6.37293849       0.00000000      23.10092020
W        7.96617311       1.59323462      24.69409247
W        6.37293849       0.00000000      27.51799142
W        7.96617311       1.59323462      29.11116368
W        6.37293849       0.00000000      30.70436083
W        7.96617311       1.59323462      32.29752240
W        6.37293849      -0.00000000      33.89068185
W        7.96617311       1.59323462      35.48383916
W        6.37293849       0.00000000      37.07696021
W        7.96617311       1.59323462      38.67012675
W        6.37293849      -0.00000000      40.26334496
W        7.96617311       1.59323462      41.85656013
W        6.37293849       0.00000000      43.44975840
W        7.96617311       1.59323462      45.04294029
W        6.37293849       0.00000000      46.63608193
W        7.96617311       1.59323462      48.22918413
W        6.37293849      -0.00000000      49.82233745
W        7.96617311       1.59323462      51.41551112
W        6.37293849       3.18646924       0.79657277
W        7.96617311       4.77970386       2.38974643
W        6.37293849       3.18646924       3.98289976
W        7.96617311       4.77970386       5.57600196
W        6.37293849       3.18646924       7.16914360
W        7.96617311       4.77970386       8.76232548
W        6.37293849       3.18646924      10.35552376
W        7.96617311       4.77970386      11.94873892
W        6.37293849       3.18646924      13.54195714
W        7.96617311       4.77970386      15.13512368
W        6.37293849       3.18646924      16.72824473
W        7.96617311       4.77970386      18.32140203
W        6.37293849       3.18646924      19.91456148
W        7.96617311       4.77970386      21.50772305
W        6.37293849       3.18646924      23.10092020
W        7.96617311       4.77970386      24.69409247
W        6.37293849       3.18646924      27.51799142
W        7.96617311       4.77970386      29.11116368
W        6.37293849       3.18646924      30.70436083
W        7.96617311       4.77970386      32.29752240
W        6.37293849       3.18646924      33.89068185
W        7.96617311       4.77970386      35.48383916
W        6.37293849       3.18646924      37.07696021
W        7.96617311       4.77970386      38.67012675
W        6.37293849       3.18646924      40.26334496
W        7.96617311       4.77970386      41.85656013
W        6.37293849       3.18646924      43.44975840
W        7.96617311       4.77970386      45.04294029
W        6.37293849       3.18646924      46.63608193
W        7.96617311       4.77970386      48.22918413
W        6.37293849       3.18646924      49.82233745
W        7.96617311       4.77970386      51.41551112
W        6.37293849       6.37293849       0.79657277
W        7.96617311       7.96617311       2.38974643
W        6.37293849       6.37293849       3.98289976
W        7.96617311       7.96617311       5.57600196
W        6.37293849       6.37293849       7.16914360
W        7.96617311       7.96617311       8.76232548
W        6.37293849       6.37293849      10.35552376
W        7.96617311       7.96617311      11.94873892
W        6.37293849       6.37293849      13.54195714
W        7.96617311       7.96617311      15.13512368
W        6.37293849       6.37293849      16.72824473
W        7.96617311       7.96617311      18.32140203
W        6.37293849       6.37293849      19.91456148
W        7.96617311       7.96617311      21.50772305
W        6.37293849       6.37293849      23.10092020
W        7.96617311       7.96617311      24.69409247
W        6.37293849       6.37293849      27.51799142
W        7.96617311       7.96617311      29.11116368
W        6.37293849       6.37293849      30.70436083
W        7.96617311       7.96617311      32.29752240
W        6.37293849       6.37293849      33.89068185
W        7.96617311       7.96617311      35.48383916
W        6.37293849       6.37293849      37.07696021
W        7.96617311       7.96617311      38.67012675
W        6.37293849       6.37293849      40.26334496
W        7.96617311       7.96617311      41.85656013
W        6.37293849       6.37293849      43.44975840
W        7.96617311       7.96617311      45.04294029
W        6.37293849       6.37293849      46.63608193
W        7.96617311       7.96617311      48.22918413
W        6.37293849       6.37293849      49.82233745
W        7.96617311       7.96617311      51.41551112
288
Lattice="9.559407728649656 -9.087318898702386e-18 2.3918883122634095e-17 -9.087318898702381e-18 9.559407728649656 -2.3057458068536844e-17 1.2294658829237918e-16 -1.138024128057971e-16 52.314647987463985" Properties=species:S:1:pos:R:3 vacuum_gap_Ang=1.3333333333333333 frame_index=13 pbc="T T T"
W       -0.00000000       0.00000000       0.79657277
W        1.59323462       1.59323462       2.38974643
W       -0.00000000       0.00000000       3.98289976
W        1.59323462       1.59323462       5.57600196
W       -0.00000000       0.00000000       7.16914360
W        1.59323462       1.59323462       8.76232548
W        0.00000000      -0.00000000      10.35552376
W        1.59323462       1.59323462      11.94873892
W       -0.00000000       0.00000000      13.54195714
W        1.59323462       1.59323462      15.13512368
W        0.00000000       0.00000000      16.72824473
W        1.59323462       1.59323462      18.32140203
W        0.00000000       0.00000000      19.91456148
W        1.59323462       1.59323462      21.50772305
W        0.00000000       0.00000000      23.10092020
W        1.59323462       1.59323462      24.69409247
W       -0.00000000       0.00000000      27.62055552
W        1.59323462       1.59323462      29.21372778
W       -0.00000000       0.00000000      30.80692493
W        1.59323462       1.59323462      32.40008651
W        0.00000000      -0.00000000      33.99324595
W        1.59323462       1.59323462      35.58640326
W        0.00000000      -0.00000000      37.17952431
W        1.59323462       1.59323462      38.77269085
W       -0.00000000      -0.00000000      40.36590906
W        1.59323462       1.59323462      41.95912423
W        0.00000000      -0.00000000      43.55232251
W        1.59323462       1.59323462      45.14550439
W        0.00000000      -0.00000000      46.73864603
W        1.59323462       1.59323462      48.33174823
W        0.00000000       0.00000000      49.92490155
W        1.59323462       1.59323462      51.51807522
W        0.00000000       3.18646924       0.79657277
W        1.59323462       4.77970386       2.38974643
W        0.00000000       3.18646924       3.98289976
W        1.59323462       4.77970386       5.57600196
W       -0.00000000       3.18646924       7.16914360
W        1.59323462       4.77970386       8.76232548
W       -0.00000000       3.18646924      10.35552376
W        1.59323462       4.77970386      11.94873892
W       -0.00000000       3.18646924      13.54195714
W        1.59323462       4.77970386      15.13512368
W        0.00000000       3.18646924      16.72824473
W        1.59323462       4.77970386      18.32140203
W       -0.00000000       3.18646924      19.91456148
W        1.59323462       4.77970386      21.50772305
W        0.00000000       3.18646924      23.10092020
W        1.59323462       4.77970386      24.69409247
W        0.00000000       3.18646924      27.62055552
W        1.59323462       4.77970386      29.21372778
W       -0.00000000       3.18646924      30.80692493
W        1.59323462       4.77970386      32.40008651
W        0.00000000       3.18646924      33.99324595
W        1.59323462       4.77970386      35.58640326
W       -0.00000000       3.18646924      37.17952431
W        1.59323462       4.77970386      38.77269085
W        0.00000000       3.18646924      40.36590906
W        1.59323462       4.77970386      41.95912423
W       -0.00000000       3.18646924      43.55232251
W        1.59323462       4.77970386      45.14550439
W       -0.00000000       3.18646924      46.73864603
W        1.59323462       4.77970386      48.33174823
W        0.00000000       3.18646924      49.92490155
W        1.59323462       4.77970386      51.51807522
W       -0.00000000       6.37293849       0.79657277
W        1.59323462       7.96617311       2.38974643
W        0.00000000       6.37293849       3.98289976
W        1.59323462       7.96617311       5.57600196
W       -0.00000000       6.37293849       7.16914360
W        1.59323462       7.96617311       8.76232548
W        0.00000000       6.37293849      10.35552376
W        1.59323462       7.96617311      11.94873892
W       -0.00000000       6.37293849      13.54195714
W        1.59323462       7.96617311      15.13512368
W        0.00000000       6.37293849      16.72824473
W        1.59323462       7.96617311      18.32140203
W        0.00000000       6.37293849      19.91456148
W        1.59323462       7.96617311      21.50772305
W       -0.00000000       6.37293849      23.10092020
W        1.59323462       7.96617311      24.69409247
W       -0.00000000       6.37293849      27.62055552
W        1.59323462       7.96617311      29.21372778
W        0.00000000       6.37293849      30.80692493
W        1.59323462       7.96617311      32.40008651
W        0.00000000       6.37293849      33.99324595
W        1.59323462       7.96617311      35.58640326
W        0.00000000       6.37293849      37.17952431
W        1.59323462       7.96617311      38.77269085
W        0.00000000       6.37293849      40.36590906
W        1.59323462       7.96617311      41.95912423
W        0.00000000       6.37293849      43.55232251
W        1.59323462       7.96617311      45.14550439
W       -0.00000000       6.37293849      46.73864603
W        1.59323462       7.96617311      48.33174823
W        0.00000000       6.37293849      49.92490155
W        1.59323462       7.96617311      51.51807522
W        3.18646924       0.00000000       0.79657277
W        4.77970386       1.59323462       2.38974643
W        3.18646924      -0.00000000       3.98289976
W        4.77970386       1.59323462       5.57600196
W        3.18646924       0.00000000       7.16914360
W        4.77970386       1.59323462       8.76232548
W        3.18646924       0.00000000      10.35552376
W        4.77970386       1.59323462      11.94873892
W        3.18646924       0.00000000      13.54195714
W        4.77970386       1.59323462      15.13512368
W        3.18646924       0.00000000      16.72824473
W        4.77970386       1.59323462      18.32140203
W        3.18646924      -0.00000000      19.91456148
W        4.77970386       1.59323462      21.50772305
W        3.18646924       0.00000000      23.10092020
W        4.77970386       1.59323462      24.69409247
W        3.18646924       0.00000000      27.62055552
W        4.77970386       1.59323462      29.21372778
W        3.18646924      -0.00000000      30.80692493
W        4.77970386       1.59323462      32.40008651
W        3.18646924       0.00000000      33.99324595
W        4.77970386       1.59323462      35.58640326
W        3.18646924       0.00000000      37.17952431
W        4.77970386       1.59323462      38.77269085
W        3.18646924       0.00000000      40.36590906
W        4.77970386       1.59323462      41.95912423
W        3.18646924      -0.00000000      43.55232251
W        4.77970386       1.59323462      45.14550439
W        3.18646924       0.00000000      46.73864603
W        4.77970386       1.59323462      48.33174823
W        3.18646924       0.00000000      49.92490155
W        4.77970386       1.59323462      51.51807522
W        3.18646924       3.18646924       0.79657277
W        4.77970386       4.77970386       2.38974643
W        3.18646924       3.18646924       3.98289976
W        4.77970386       4.77970386       5.57600196
W        3.18646924       3.18646924       7.16914360
W        4.77970386       4.77970386       8.76232548
W        3.18646924       3.18646924      10.35552376
W        4.77970386       4.77970386      11.94873892
W        3.18646924       3.18646924      13.54195714
W        4.77970386       4.77970386      15.13512368
W        3.18646924       3.18646924      16.72824473
W        4.77970386       4.77970386      18.32140203
W        3.18646924       3.18646924      19.91456148
W        4.77970386       4.77970386      21.50772305
W        3.18646924       3.18646924      23.10092020
W        4.77970386       4.77970386      24.69409247
W        3.18646924       3.18646924      27.62055552
W        4.77970386       4.77970386      29.21372778
W        3.18646924       3.18646924      30.80692493
W        4.77970386       4.77970386      32.40008651
W        3.18646924       3.18646924      33.99324595
W        4.77970386       4.77970386      35.58640326
W        3.18646924       3.18646924      37.17952431
W        4.77970386       4.77970386      38.77269085
W        3.18646924       3.18646924      40.36590906
W        4.77970386       4.77970386      41.95912423
W        3.18646924       3.18646924      43.55232251
W        4.77970386       4.77970386      45.14550439
W        3.18646924       3.18646924      46.73864603
W        4.77970386       4.77970386      48.33174823
W        3.18646924       3.18646924      49.92490155
W        4.77970386       4.77970386      51.51807522
W        3.18646924       6.37293849       0.79657277
W        4.77970386       7.96617311       2.38974643
W        3.18646924       6.37293849       3.98289976
W        4.77970386       7.96617311       5.57600196
W        3.18646924       6.37293849       7.16914360
W        4.77970386       7.96617311       8.76232548
W        3.18646924       6.37293849      10.35552376
W        4.77970386       7.96617311      11.94873892
W        3.18646924       6.37293849      13.54195714
W        4.77970386       7.96617311      15.13512368
W        3.18646924       6.37293849      16.72824473
W        4.77970386       7.96617311      18.32140203
W        3.18646924       6.37293849      19.91456148
W        4.77970386       7.96617311      21.50772305
W        3.18646924       6.37293849      23.10092020
W        4.77970386       7.96617311      24.69409247
W        3.18646924       6.37293849      27.62055552
W        4.77970386       7.96617311      29.21372778
W        3.18646924       6.37293849      30.80692493
W        4.77970386       7.96617311      32.40008651
W        3.18646924       6.37293849      33.99324595
W        4.77970386       7.96617311      35.58640326
W        3.18646924       6.37293849      37.17952431
W        4.77970386       7.96617311      38.77269085
W        3.18646924       6.37293849      40.36590906
W        4.77970386       7.96617311      41.95912423
W        3.18646924       6.37293849      43.55232251
W        4.77970386       7.96617311      45.14550439
W        3.18646924       6.37293849      46.73864603
W        4.77970386       7.96617311      48.33174823
W        3.18646924       6.37293849      49.92490155
W        4.77970386       7.96617311      51.51807522
W        6.37293849       0.00000000       0.79657277
W        7.96617311       1.59323462       2.38974643
W        6.37293849       0.00000000       3.98289976
W        7.96617311       1.59323462       5.57600196
W        6.37293849       0.00000000       7.16914360
W        7.96617311       1.59323462       8.76232548
W        6.37293849      -0.00000000      10.35552376
W        7.96617311       1.59323462      11.94873892
W        6.37293849       0.00000000      13.54195714
W        7.96617311       1.59323462      15.13512368
W        6.37293849      -0.00000000      16.72824473
W        7.96617311       1.59323462      18.32140203
W        6.37293849       0.00000000      19.91456148
W        7.96617311       1.59323462      21.50772305
W        6.37293849       0.00000000      23.10092020
W        7.96617311       1.59323462      24.69409247
W        6.37293849       0.00000000      27.62055552
W        7.96617311       1.59323462      29.21372778
W        6.37293849       0.00000000      30.80692493
W        7.96617311       1.59323462      32.40008651
W        6.37293849      -0.00000000      33.99324595
W        7.96617311       1.59323462      35.58640326
W        6.37293849       0.00000000      37.17952431
W        7.96617311       1.59323462      38.77269085
W        6.37293849      -0.00000000      40.36590906
W        7.96617311       1.59323462      41.95912423
W        6.37293849       0.00000000      43.55232251
W        7.96617311       1.59323462      45.14550439
W        6.37293849       0.00000000      46.73864603
W        7.96617311       1.59323462      48.33174823
W        6.37293849      -0.00000000      49.92490155
W        7.96617311       1.59323462      51.51807522
W        6.37293849       3.18646924       0.79657277
W        7.96617311       4.77970386       2.38974643
W        6.37293849       3.18646924       3.98289976
W        7.96617311       4.77970386       5.57600196
W        6.37293849       3.18646924       7.16914360
W        7.96617311       4.77970386       8.76232548
W        6.37293849       3.18646924      10.35552376
W        7.96617311       4.77970386      11.94873892
W        6.37293849       3.18646924      13.54195714
W        7.96617311       4.77970386      15.13512368
W        6.37293849       3.18646924      16.72824473
W        7.96617311       4.77970386      18.32140203
W        6.37293849       3.18646924      19.91456148
W        7.96617311       4.77970386      21.50772305
W        6.37293849       3.18646924      23.10092020
W        7.96617311       4.77970386      24.69409247
W        6.37293849       3.18646924      27.62055552
W        7.96617311       4.77970386      29.21372778
W        6.37293849       3.18646924      30.80692493
W        7.96617311       4.77970386      32.40008651
W        6.37293849       3.18646924      33.99324595
W        7.96617311       4.77970386      35.58640326
W        6.37293849       3.18646924      37.17952431
W        7.96617311       4.77970386      38.77269085
W        6.37293849       3.18646924      40.36590906
W        7.96617311       4.77970386      41.95912423
W        6.37293849       3.18646924      43.55232251
W        7.96617311       4.77970386      45.14550439
W        6.37293849       3.18646924      46.73864603
W        7.96617311       4.77970386      48.33174823
W        6.37293849       3.18646924      49.92490155
W        7.96617311       4.77970386      51.51807522
W        6.37293849       6.37293849       0.79657277
W        7.96617311       7.96617311       2.38974643
W        6.37293849       6.37293849       3.98289976
W        7.96617311       7.96617311       5.57600196
W        6.37293849       6.37293849       7.16914360
W        7.96617311       7.96617311       8.76232548
W        6.37293849       6.37293849      10.35552376
W        7.96617311       7.96617311      11.94873892
W        6.37293849       6.37293849      13.54195714
W        7.96617311       7.96617311      15.13512368
W        6.37293849       6.37293849      16.72824473
W        7.96617311       7.96617311      18.32140203
W        6.37293849       6.37293849      19.91456148
W        7.96617311       7.96617311      21.50772305
W        6.37293849       6.37293849      23.10092020
W        7.96617311       7.96617311      24.69409247
W        6.37293849       6.37293849      27.62055552
W        7.96617311       7.96617311      29.21372778
W        6.37293849       6.37293849      30.80692493
W        7.96617311       7.96617311      32.40008651
W        6.37293849       6.37293849      33.99324595
W        7.96617311       7.96617311      35.58640326
W        6.37293849       6.37293849      37.17952431
W        7.96617311       7.96617311      38.77269085
W        6.37293849       6.37293849      40.36590906
W        7.96617311       7.96617311      41.95912423
W        6.37293849       6.37293849      43.55232251
W        7.96617311       7.96617311      45.14550439
W        6.37293849       6.37293849      46.73864603
W        7.96617311       7.96617311      48.33174823
W        6.37293849       6.37293849      49.92490155
W        7.96617311       7.96617311      51.51807522
288
Lattice="9.559407728649656 -9.087318898702386e-18 2.3918883122634095e-17 -9.087318898702381e-18 9.559407728649656 -2.3057458068536844e-17 1.2294658829237918e-16 -1.138024128057971e-16 52.41721209002809" Properties=species:S:1:pos:R:3 vacuum_gap_Ang=1.435897435897436 frame_index=14 pbc="T T T"
W       -0.00000000       0.00000000       0.79657277
W        1.59323462       1.59323462       2.38974643
W       -0.00000000       0.00000000       3.98289976
W        1.59323462       1.59323462       5.57600196
W       -0.00000000       0.00000000       7.16914360
W        1.59323462       1.59323462       8.76232548
W        0.00000000      -0.00000000      10.35552376
W        1.59323462       1.59323462      11.94873892
W       -0.00000000       0.00000000      13.54195714
W        1.59323462       1.59323462      15.13512368
W        0.00000000       0.00000000      16.72824473
W        1.59323462       1.59323462      18.32140203
W        0.00000000       0.00000000      19.91456148
W        1.59323462       1.59323462      21.50772305
W        0.00000000       0.00000000      23.10092020
W        1.59323462       1.59323462      24.69409247
W       -0.00000000       0.00000000      27.72311962
W        1.59323462       1.59323462      29.31629189
W       -0.00000000       0.00000000      30.90948904
W        1.59323462       1.59323462      32.50265061
W        0.00000000      -0.00000000      34.09581006
W        1.59323462       1.59323462      35.68896736
W        0.00000000      -0.00000000      37.28208841
W        1.59323462       1.59323462      38.87525495
W       -0.00000000      -0.00000000      40.46847317
W        1.59323462       1.59323462      42.06168833
W        0.00000000      -0.00000000      43.65488661
W        1.59323462       1.59323462      45.24806849
W        0.00000000      -0.00000000      46.84121013
W        1.59323462       1.59323462      48.43431233
W        0.00000000       0.00000000      50.02746566
W        1.59323462       1.59323462      51.62063932
W        0.00000000       3.18646924       0.79657277
W        1.59323462       4.77970386       2.38974643
W        0.00000000       3.18646924       3.98289976
W        1.59323462       4.77970386       5.57600196
W       -0.00000000       3.18646924       7.16914360
W        1.59323462       4.77970386       8.76232548
W       -0.00000000       3.18646924      10.35552376
W        1.59323462       4.77970386      11.94873892
W       -0.00000000       3.18646924      13.54195714
W        1.59323462       4.77970386      15.13512368
W        0.00000000       3.18646924      16.72824473
W        1.59323462       4.77970386      18.32140203
W       -0.00000000       3.18646924      19.91456148
W        1.59323462       4.77970386      21.50772305
W        0.00000000       3.18646924      23.10092020
W        1.59323462       4.77970386      24.69409247
W        0.00000000       3.18646924      27.72311962
W        1.59323462       4.77970386      29.31629189
W       -0.00000000       3.18646924      30.90948904
W        1.59323462       4.77970386      32.50265061
W        0.00000000       3.18646924      34.09581006
W        1.59323462       4.77970386      35.68896736
W       -0.00000000       3.18646924      37.28208841
W        1.59323462       4.77970386      38.87525495
W        0.00000000       3.18646924      40.46847317
W        1.59323462       4.77970386      42.06168833
W       -0.00000000       3.18646924      43.65488661
W        1.59323462       4.77970386      45.24806849
W       -0.00000000       3.18646924      46.84121013
W        1.59323462       4.77970386      48.43431233
W        0.00000000       3.18646924      50.02746566
W        1.59323462       4.77970386      51.62063932
W       -0.00000000       6.37293849       0.79657277
W        1.59323462       7.96617311       2.38974643
W        0.00000000       6.37293849       3.98289976
W        1.59323462       7.96617311       5.57600196
W       -0.00000000       6.37293849       7.16914360
W        1.59323462       7.96617311       8.76232548
W        0.00000000       6.37293849      10.35552376
W        1.59323462       7.96617311      11.94873892
W       -0.00000000       6.37293849      13.54195714
W        1.59323462       7.96617311      15.13512368
W        0.00000000       6.37293849      16.72824473
W        1.59323462       7.96617311      18.32140203
W        0.00000000       6.37293849      19.91456148
W        1.59323462       7.96617311      21.50772305
W       -0.00000000       6.37293849      23.10092020
W        1.59323462       7.96617311      24.69409247
W       -0.00000000       6.37293849      27.72311962
W        1.59323462       7.96617311      29.31629189
W        0.00000000       6.37293849      30.90948904
W        1.59323462       7.96617311      32.50265061
W        0.00000000       6.37293849      34.09581006
W        1.59323462       7.96617311      35.68896736
W        0.00000000       6.37293849      37.28208841
W        1.59323462       7.96617311      38.87525495
W        0.00000000       6.37293849      40.46847317
W        1.59323462       7.96617311      42.06168833
W        0.00000000       6.37293849      43.65488661
W        1.59323462       7.96617311      45.24806849
W       -0.00000000       6.37293849      46.84121013
W        1.59323462       7.96617311      48.43431233
W        0.00000000       6.37293849      50.02746566
W        1.59323462       7.96617311      51.62063932
W        3.18646924       0.00000000       0.79657277
W        4.77970386       1.59323462       2.38974643
W        3.18646924      -0.00000000       3.98289976
W        4.77970386       1.59323462       5.57600196
W        3.18646924       0.00000000       7.16914360
W        4.77970386       1.59323462       8.76232548
W        3.18646924       0.00000000      10.35552376
W        4.77970386       1.59323462      11.94873892
W        3.18646924       0.00000000      13.54195714
W        4.77970386       1.59323462      15.13512368
W        3.18646924       0.00000000      16.72824473
W        4.77970386       1.59323462      18.32140203
W        3.18646924      -0.00000000      19.91456148
W        4.77970386       1.59323462      21.50772305
W        3.18646924       0.00000000      23.10092020
W        4.77970386       1.59323462      24.69409247
W        3.18646924       0.00000000      27.72311962
W        4.77970386       1.59323462      29.31629189
W        3.18646924      -0.00000000      30.90948904
W        4.77970386       1.59323462      32.50265061
W        3.18646924       0.00000000      34.09581006
W        4.77970386       1.59323462      35.68896736
W        3.18646924       0.00000000      37.28208841
W        4.77970386       1.59323462      38.87525495
W        3.18646924       0.00000000      40.46847317
W        4.77970386       1.59323462      42.06168833
W        3.18646924      -0.00000000      43.65488661
W        4.77970386       1.59323462      45.24806849
W        3.18646924       0.00000000      46.84121013
W        4.77970386       1.59323462      48.43431233
W        3.18646924       0.00000000      50.02746566
W        4.77970386       1.59323462      51.62063932
W        3.18646924       3.18646924       0.79657277
W        4.77970386       4.77970386       2.38974643
W        3.18646924       3.18646924       3.98289976
W        4.77970386       4.77970386       5.57600196
W        3.18646924       3.18646924       7.16914360
W        4.77970386       4.77970386       8.76232548
W        3.18646924       3.18646924      10.35552376
W        4.77970386       4.77970386      11.94873892
W        3.18646924       3.18646924      13.54195714
W        4.77970386       4.77970386      15.13512368
W        3.18646924       3.18646924      16.72824473
W        4.77970386       4.77970386      18.32140203
W        3.18646924       3.18646924      19.91456148
W        4.77970386       4.77970386      21.50772305
W        3.18646924       3.18646924      23.10092020
W        4.77970386       4.77970386      24.69409247
W        3.18646924       3.18646924      27.72311962
W        4.77970386       4.77970386      29.31629189
W        3.18646924       3.18646924      30.90948904
W        4.77970386       4.77970386      32.50265061
W        3.18646924       3.18646924      34.09581006
W        4.77970386       4.77970386      35.68896736
W        3.18646924       3.18646924      37.28208841
W        4.77970386       4.77970386      38.87525495
W        3.18646924       3.18646924      40.46847317
W        4.77970386       4.77970386      42.06168833
W        3.18646924       3.18646924      43.65488661
W        4.77970386       4.77970386      45.24806849
W        3.18646924       3.18646924      46.84121013
W        4.77970386       4.77970386      48.43431233
W        3.18646924       3.18646924      50.02746566
W        4.77970386       4.77970386      51.62063932
W        3.18646924       6.37293849       0.79657277
W        4.77970386       7.96617311       2.38974643
W        3.18646924       6.37293849       3.98289976
W        4.77970386       7.96617311       5.57600196
W        3.18646924       6.37293849       7.16914360
W        4.77970386       7.96617311       8.76232548
W        3.18646924       6.37293849      10.35552376
W        4.77970386       7.96617311      11.94873892
W        3.18646924       6.37293849      13.54195714
W        4.77970386       7.96617311      15.13512368
W        3.18646924       6.37293849      16.72824473
W        4.77970386       7.96617311      18.32140203
W        3.18646924       6.37293849      19.91456148
W        4.77970386       7.96617311      21.50772305
W        3.18646924       6.37293849      23.10092020
W        4.77970386       7.96617311      24.69409247
W        3.18646924       6.37293849      27.72311962
W        4.77970386       7.96617311      29.31629189
W        3.18646924       6.37293849      30.90948904
W        4.77970386       7.96617311      32.50265061
W        3.18646924       6.37293849      34.09581006
W        4.77970386       7.96617311      35.68896736
W        3.18646924       6.37293849      37.28208841
W        4.77970386       7.96617311      38.87525495
W        3.18646924       6.37293849      40.46847317
W        4.77970386       7.96617311      42.06168833
W        3.18646924       6.37293849      43.65488661
W        4.77970386       7.96617311      45.24806849
W        3.18646924       6.37293849      46.84121013
W        4.77970386       7.96617311      48.43431233
W        3.18646924       6.37293849      50.02746566
W        4.77970386       7.96617311      51.62063932
W        6.37293849       0.00000000       0.79657277
W        7.96617311       1.59323462       2.38974643
W        6.37293849       0.00000000       3.98289976
W        7.96617311       1.59323462       5.57600196
W        6.37293849       0.00000000       7.16914360
W        7.96617311       1.59323462       8.76232548
W        6.37293849      -0.00000000      10.35552376
W        7.96617311       1.59323462      11.94873892
W        6.37293849       0.00000000      13.54195714
W        7.96617311       1.59323462      15.13512368
W        6.37293849      -0.00000000      16.72824473
W        7.96617311       1.59323462      18.32140203
W        6.37293849       0.00000000      19.91456148
W        7.96617311       1.59323462      21.50772305
W        6.37293849       0.00000000      23.10092020
W        7.96617311       1.59323462      24.69409247
W        6.37293849       0.00000000      27.72311962
W        7.96617311       1.59323462      29.31629189
W        6.37293849       0.00000000      30.90948904
W        7.96617311       1.59323462      32.50265061
W        6.37293849      -0.00000000      34.09581006
W        7.96617311       1.59323462      35.68896736
W        6.37293849       0.00000000      37.28208841
W        7.96617311       1.59323462      38.87525495
W        6.37293849      -0.00000000      40.46847317
W        7.96617311       1.59323462      42.06168833
W        6.37293849       0.00000000      43.65488661
W        7.96617311       1.59323462      45.24806849
W        6.37293849       0.00000000      46.84121013
W        7.96617311       1.59323462      48.43431233
W        6.37293849      -0.00000000      50.02746566
W        7.96617311       1.59323462      51.62063932
W        6.37293849       3.18646924       0.79657277
W        7.96617311       4.77970386       2.38974643
W        6.37293849       3.18646924       3.98289976
W        7.96617311       4.77970386       5.57600196
W        6.37293849       3.18646924       7.16914360
W        7.96617311       4.77970386       8.76232548
W        6.37293849       3.18646924      10.35552376
W        7.96617311       4.77970386      11.94873892
W        6.37293849       3.18646924      13.54195714
W        7.96617311       4.77970386      15.13512368
W        6.37293849       3.18646924      16.72824473
W        7.96617311       4.77970386      18.32140203
W        6.37293849       3.18646924      19.91456148
W        7.96617311       4.77970386      21.50772305
W        6.37293849       3.18646924      23.10092020
W        7.96617311       4.77970386      24.69409247
W        6.37293849       3.18646924      27.72311962
W        7.96617311       4.77970386      29.31629189
W        6.37293849       3.18646924      30.90948904
W        7.96617311       4.77970386      32.50265061
W        6.37293849       3.18646924      34.09581006
W        7.96617311       4.77970386      35.68896736
W        6.37293849       3.18646924      37.28208841
W        7.96617311       4.77970386      38.87525495
W        6.37293849       3.18646924      40.46847317
W        7.96617311       4.77970386      42.06168833
W        6.37293849       3.18646924      43.65488661
W        7.96617311       4.77970386      45.24806849
W        6.37293849       3.18646924      46.84121013
W        7.96617311       4.77970386      48.43431233
W        6.37293849       3.18646924      50.02746566
W        7.96617311       4.77970386      51.62063932
W        6.37293849       6.37293849       0.79657277
W        7.96617311       7.96617311       2.38974643
W        6.37293849       6.37293849       3.98289976
W        7.96617311       7.96617311       5.57600196
W        6.37293849       6.37293849       7.16914360
W        7.96617311       7.96617311       8.76232548
W        6.37293849       6.37293849      10.35552376
W        7.96617311       7.96617311      11.94873892
W        6.37293849       6.37293849      13.54195714
W        7.96617311       7.96617311      15.13512368
W        6.37293849       6.37293849      16.72824473
W        7.96617311       7.96617311      18.32140203
W        6.37293849       6.37293849      19.91456148
W        7.96617311       7.96617311      21.50772305
W        6.37293849       6.37293849      23.10092020
W        7.96617311       7.96617311      24.69409247
W        6.37293849       6.37293849      27.72311962
W        7.96617311       7.96617311      29.31629189
W        6.37293849       6.37293849      30.90948904
W        7.96617311       7.96617311      32.50265061
W        6.37293849       6.37293849      34.09581006
W        7.96617311       7.96617311      35.68896736
W        6.37293849       6.37293849      37.28208841
W        7.96617311       7.96617311      38.87525495
W        6.37293849       6.37293849      40.46847317
W        7.96617311       7.96617311      42.06168833
W        6.37293849       6.37293849      43.65488661
W        7.96617311       7.96617311      45.24806849
W        6.37293849       6.37293849      46.84121013
W        7.96617311       7.96617311      48.43431233
W        6.37293849       6.37293849      50.02746566
W        7.96617311       7.96617311      51.62063932
288
Lattice="9.559407728649656 -9.087318898702386e-18 2.3918883122634095e-17 -9.087318898702381e-18 9.559407728649656 -2.3057458068536844e-17 1.2294658829237918e-16 -1.138024128057971e-16 52.51977619259219" Properties=species:S:1:pos:R:3 vacuum_gap_Ang=1.5384615384615383 frame_index=15 pbc="T T T"
W       -0.00000000       0.00000000       0.79657277
W        1.59323462       1.59323462       2.38974643
W       -0.00000000       0.00000000       3.98289976
W        1.59323462       1.59323462       5.57600196
W       -0.00000000       0.00000000       7.16914360
W        1.59323462       1.59323462       8.76232548
W        0.00000000      -0.00000000      10.35552376
W        1.59323462       1.59323462      11.94873892
W       -0.00000000       0.00000000      13.54195714
W        1.59323462       1.59323462      15.13512368
W        0.00000000       0.00000000      16.72824473
W        1.59323462       1.59323462      18.32140203
W        0.00000000       0.00000000      19.91456148
W        1.59323462       1.59323462      21.50772305
W        0.00000000       0.00000000      23.10092020
W        1.59323462       1.59323462      24.69409247
W       -0.00000000       0.00000000      27.82568373
W        1.59323462       1.59323462      29.41885599
W       -0.00000000       0.00000000      31.01205314
W        1.59323462       1.59323462      32.60521471
W        0.00000000      -0.00000000      34.19837416
W        1.59323462       1.59323462      35.79153147
W        0.00000000      -0.00000000      37.38465251
W        1.59323462       1.59323462      38.97781906
W       -0.00000000      -0.00000000      40.57103727
W        1.59323462       1.59323462      42.16425243
W        0.00000000      -0.00000000      43.75745071
W        1.59323462       1.59323462      45.35063259
W        0.00000000      -0.00000000      46.94377423
W        1.59323462       1.59323462      48.53687643
W        0.00000000       0.00000000      50.13002976
W        1.59323462       1.59323462      51.72320342
W        0.00000000       3.18646924       0.79657277
W        1.59323462       4.77970386       2.38974643
W        0.00000000       3.18646924       3.98289976
W        1.59323462       4.77970386       5.57600196
W       -0.00000000       3.18646924       7.16914360
W        1.59323462       4.77970386       8.76232548
W       -0.00000000       3.18646924      10.35552376
W        1.59323462       4.77970386      11.94873892
W       -0.00000000       3.18646924      13.54195714
W        1.59323462       4.77970386      15.13512368
W        0.00000000       3.18646924      16.72824473
W        1.59323462       4.77970386      18.32140203
W       -0.00000000       3.18646924      19.91456148
W        1.59323462       4.77970386      21.50772305
W        0.00000000       3.18646924      23.10092020
W        1.59323462       4.77970386      24.69409247
W        0.00000000       3.18646924      27.82568373
W        1.59323462       4.77970386      29.41885599
W       -0.00000000       3.18646924      31.01205314
W        1.59323462       4.77970386      32.60521471
W        0.00000000       3.18646924      34.19837416
W        1.59323462       4.77970386      35.79153147
W       -0.00000000       3.18646924      37.38465251
W        1.59323462       4.77970386      38.97781906
W        0.00000000       3.18646924      40.57103727
W        1.59323462       4.77970386      42.16425243
W       -0.00000000       3.18646924      43.75745071
W        1.59323462       4.77970386      45.35063259
W       -0.00000000       3.18646924      46.94377423
W        1.59323462       4.77970386      48.53687643
W        0.00000000       3.18646924      50.13002976
W        1.59323462       4.77970386      51.72320342
W       -0.00000000       6.37293849       0.79657277
W        1.59323462       7.96617311       2.38974643
W        0.00000000       6.37293849       3.98289976
W        1.59323462       7.96617311       5.57600196
W       -0.00000000       6.37293849       7.16914360
W        1.59323462       7.96617311       8.76232548
W        0.00000000       6.37293849      10.35552376
W        1.59323462       7.96617311      11.94873892
W       -0.00000000       6.37293849      13.54195714
W        1.59323462       7.96617311      15.13512368
W        0.00000000       6.37293849      16.72824473
W        1.59323462       7.96617311      18.32140203
W        0.00000000       6.37293849      19.91456148
W        1.59323462       7.96617311      21.50772305
W       -0.00000000       6.37293849      23.10092020
W        1.59323462       7.96617311      24.69409247
W       -0.00000000       6.37293849      27.82568373
W        1.59323462       7.96617311      29.41885599
W        0.00000000       6.37293849      31.01205314
W        1.59323462       7.96617311      32.60521471
W        0.00000000       6.37293849      34.19837416
W        1.59323462       7.96617311      35.79153147
W        0.00000000       6.37293849      37.38465251
W        1.59323462       7.96617311      38.97781906
W        0.00000000       6.37293849      40.57103727
W        1.59323462       7.96617311      42.16425243
W        0.00000000       6.37293849      43.75745071
W        1.59323462       7.96617311      45.35063259
W       -0.00000000       6.37293849      46.94377423
W        1.59323462       7.96617311      48.53687643
W        0.00000000       6.37293849      50.13002976
W        1.59323462       7.96617311      51.72320342
W        3.18646924       0.00000000       0.79657277
W        4.77970386       1.59323462       2.38974643
W        3.18646924      -0.00000000       3.98289976
W        4.77970386       1.59323462       5.57600196
W        3.18646924       0.00000000       7.16914360
W        4.77970386       1.59323462       8.76232548
W        3.18646924       0.00000000      10.35552376
W        4.77970386       1.59323462      11.94873892
W        3.18646924       0.00000000      13.54195714
W        4.77970386       1.59323462      15.13512368
W        3.18646924       0.00000000      16.72824473
W        4.77970386       1.59323462      18.32140203
W        3.18646924      -0.00000000      19.91456148
W        4.77970386       1.59323462      21.50772305
W        3.18646924       0.00000000      23.10092020
W        4.77970386       1.59323462      24.69409247
W        3.18646924       0.00000000      27.82568373
W        4.77970386       1.59323462      29.41885599
W        3.18646924      -0.00000000      31.01205314
W        4.77970386       1.59323462      32.60521471
W        3.18646924       0.00000000      34.19837416
W        4.77970386       1.59323462      35.79153147
W        3.18646924       0.00000000      37.38465251
W        4.77970386       1.59323462      38.97781906
W        3.18646924       0.00000000      40.57103727
W        4.77970386       1.59323462      42.16425243
W        3.18646924      -0.00000000      43.75745071
W        4.77970386       1.59323462      45.35063259
W        3.18646924       0.00000000      46.94377423
W        4.77970386       1.59323462      48.53687643
W        3.18646924       0.00000000      50.13002976
W        4.77970386       1.59323462      51.72320342
W        3.18646924       3.18646924       0.79657277
W        4.77970386       4.77970386       2.38974643
W        3.18646924       3.18646924       3.98289976
W        4.77970386       4.77970386       5.57600196
W        3.18646924       3.18646924       7.16914360
W        4.77970386       4.77970386       8.76232548
W        3.18646924       3.18646924      10.35552376
W        4.77970386       4.77970386      11.94873892
W        3.18646924       3.18646924      13.54195714
W        4.77970386       4.77970386      15.13512368
W        3.18646924       3.18646924      16.72824473
W        4.77970386       4.77970386      18.32140203
W        3.18646924       3.18646924      19.91456148
W        4.77970386       4.77970386      21.50772305
W        3.18646924       3.18646924      23.10092020
W        4.77970386       4.77970386      24.69409247
W        3.18646924       3.18646924      27.82568373
W        4.77970386       4.77970386      29.41885599
W        3.18646924       3.18646924      31.01205314
W        4.77970386       4.77970386      32.60521471
W        3.18646924       3.18646924      34.19837416
W        4.77970386       4.77970386      35.79153147
W        3.18646924       3.18646924      37.38465251
W        4.77970386       4.77970386      38.97781906
W        3.18646924       3.18646924      40.57103727
W        4.77970386       4.77970386      42.16425243
W        3.18646924       3.18646924      43.75745071
W        4.77970386       4.77970386      45.35063259
W        3.18646924       3.18646924      46.94377423
W        4.77970386       4.77970386      48.53687643
W        3.18646924       3.18646924      50.13002976
W        4.77970386       4.77970386      51.72320342
W        3.18646924       6.37293849       0.79657277
W        4.77970386       7.96617311       2.38974643
W        3.18646924       6.37293849       3.98289976
W        4.77970386       7.96617311       5.57600196
W        3.18646924       6.37293849       7.16914360
W        4.77970386       7.96617311       8.76232548
W        3.18646924       6.37293849      10.35552376
W        4.77970386       7.96617311      11.94873892
W        3.18646924       6.37293849      13.54195714
W        4.77970386       7.96617311      15.13512368
W        3.18646924       6.37293849      16.72824473
W        4.77970386       7.96617311      18.32140203
W        3.18646924       6.37293849      19.91456148
W        4.77970386       7.96617311      21.50772305
W        3.18646924       6.37293849      23.10092020
W        4.77970386       7.96617311      24.69409247
W        3.18646924       6.37293849      27.82568373
W        4.77970386       7.96617311      29.41885599
W        3.18646924       6.37293849      31.01205314
W        4.77970386       7.96617311      32.60521471
W        3.18646924       6.37293849      34.19837416
W        4.77970386       7.96617311      35.79153147
W        3.18646924       6.37293849      37.38465251
W        4.77970386       7.96617311      38.97781906
W        3.18646924       6.37293849      40.57103727
W        4.77970386       7.96617311      42.16425243
W        3.18646924       6.37293849      43.75745071
W        4.77970386       7.96617311      45.35063259
W        3.18646924       6.37293849      46.94377423
W        4.77970386       7.96617311      48.53687643
W        3.18646924       6.37293849      50.13002976
W        4.77970386       7.96617311      51.72320342
W        6.37293849       0.00000000       0.79657277
W        7.96617311       1.59323462       2.38974643
W        6.37293849       0.00000000       3.98289976
W        7.96617311       1.59323462       5.57600196
W        6.37293849       0.00000000       7.16914360
W        7.96617311       1.59323462       8.76232548
W        6.37293849      -0.00000000      10.35552376
W        7.96617311       1.59323462      11.94873892
W        6.37293849       0.00000000      13.54195714
W        7.96617311       1.59323462      15.13512368
W        6.37293849      -0.00000000      16.72824473
W        7.96617311       1.59323462      18.32140203
W        6.37293849       0.00000000      19.91456148
W        7.96617311       1.59323462      21.50772305
W        6.37293849       0.00000000      23.10092020
W        7.96617311       1.59323462      24.69409247
W        6.37293849       0.00000000      27.82568373
W        7.96617311       1.59323462      29.41885599
W        6.37293849       0.00000000      31.01205314
W        7.96617311       1.59323462      32.60521471
W        6.37293849      -0.00000000      34.19837416
W        7.96617311       1.59323462      35.79153147
W        6.37293849       0.00000000      37.38465251
W        7.96617311       1.59323462      38.97781906
W        6.37293849      -0.00000000      40.57103727
W        7.96617311       1.59323462      42.16425243
W        6.37293849       0.00000000      43.75745071
W        7.96617311       1.59323462      45.35063259
W        6.37293849       0.00000000      46.94377423
W        7.96617311       1.59323462      48.53687643
W        6.37293849      -0.00000000      50.13002976
W        7.96617311       1.59323462      51.72320342
W        6.37293849       3.18646924       0.79657277
W        7.96617311       4.77970386       2.38974643
W        6.37293849       3.18646924       3.98289976
W        7.96617311       4.77970386       5.57600196
W        6.37293849       3.18646924       7.16914360
W        7.96617311       4.77970386       8.76232548
W        6.37293849       3.18646924      10.35552376
W        7.96617311       4.77970386      11.94873892
W        6.37293849       3.18646924      13.54195714
W        7.96617311       4.77970386      15.13512368
W        6.37293849       3.18646924      16.72824473
W        7.96617311       4.77970386      18.32140203
W        6.37293849       3.18646924      19.91456148
W        7.96617311       4.77970386      21.50772305
W        6.37293849       3.18646924      23.10092020
W        7.96617311       4.77970386      24.69409247
W        6.37293849       3.18646924      27.82568373
W        7.96617311       4.77970386      29.41885599
W        6.37293849       3.18646924      31.01205314
W        7.96617311       4.77970386      32.60521471
W        6.37293849       3.18646924      34.19837416
W        7.96617311       4.77970386      35.79153147
W        6.37293849       3.18646924      37.38465251
W        7.96617311       4.77970386      38.97781906
W        6.37293849       3.18646924      40.57103727
W        7.96617311       4.77970386      42.16425243
W        6.37293849       3.18646924      43.75745071
W        7.96617311       4.77970386      45.35063259
W        6.37293849       3.18646924      46.94377423
W        7.96617311       4.77970386      48.53687643
W        6.37293849       3.18646924      50.13002976
W        7.96617311       4.77970386      51.72320342
W        6.37293849       6.37293849       0.79657277
W        7.96617311       7.96617311       2.38974643
W        6.37293849       6.37293849       3.98289976
W        7.96617311       7.96617311       5.57600196
W        6.37293849       6.37293849       7.16914360
W        7.96617311       7.96617311       8.76232548
W        6.37293849       6.37293849      10.35552376
W        7.96617311       7.96617311      11.94873892
W        6.37293849       6.37293849      13.54195714
W        7.96617311       7.96617311      15.13512368
W        6.37293849       6.37293849      16.72824473
W        7.96617311       7.96617311      18.32140203
W        6.37293849       6.37293849      19.91456148
W        7.96617311       7.96617311      21.50772305
W        6.37293849       6.37293849      23.10092020
W        7.96617311       7.96617311      24.69409247
W        6.37293849       6.37293849      27.82568373
W        7.96617311       7.96617311      29.41885599
W        6.37293849       6.37293849      31.01205314
W        7.96617311       7.96617311      32.60521471
W        6.37293849       6.37293849      34.19837416
W        7.96617311       7.96617311      35.79153147
W        6.37293849       6.37293849      37.38465251
W        7.96617311       7.96617311      38.97781906
W        6.37293849       6.37293849      40.57103727
W        7.96617311       7.96617311      42.16425243
W        6.37293849       6.37293849      43.75745071
W        7.96617311       7.96617311      45.35063259
W        6.37293849       6.37293849      46.94377423
W        7.96617311       7.96617311      48.53687643
W        6.37293849       6.37293849      50.13002976
W        7.96617311       7.96617311      51.72320342
288
Lattice="9.559407728649656 -9.087318898702386e-18 2.3918883122634095e-17 -9.087318898702381e-18 9.559407728649656 -2.3057458068536844e-17 1.2294658829237918e-16 -1.138024128057971e-16 52.62234029515629" Properties=species:S:1:pos:R:3 vacuum_gap_Ang=1.641025641025641 frame_index=16 pbc="T T T"
W       -0.00000000       0.00000000       0.79657277
W        1.59323462       1.59323462       2.38974643
W       -0.00000000       0.00000000       3.98289976
W        1.59323462       1.59323462       5.57600196
W       -0.00000000       0.00000000       7.16914360
W        1.59323462       1.59323462       8.76232548
W        0.00000000      -0.00000000      10.35552376
W        1.59323462       1.59323462      11.94873892
W       -0.00000000       0.00000000      13.54195714
W        1.59323462       1.59323462      15.13512368
W        0.00000000       0.00000000      16.72824473
W        1.59323462       1.59323462      18.32140203
W        0.00000000       0.00000000      19.91456148
W        1.59323462       1.59323462      21.50772305
W        0.00000000       0.00000000      23.10092020
W        1.59323462       1.59323462      24.69409247
W       -0.00000000       0.00000000      27.92824783
W        1.59323462       1.59323462      29.52142009
W       -0.00000000       0.00000000      31.11461724
W        1.59323462       1.59323462      32.70777881
W        0.00000000      -0.00000000      34.30093826
W        1.59323462       1.59323462      35.89409557
W        0.00000000      -0.00000000      37.48721662
W        1.59323462       1.59323462      39.08038316
W       -0.00000000      -0.00000000      40.67360137
W        1.59323462       1.59323462      42.26681654
W        0.00000000      -0.00000000      43.86001481
W        1.59323462       1.59323462      45.45319670
W        0.00000000      -0.00000000      47.04633834
W        1.59323462       1.59323462      48.63944054
W        0.00000000       0.00000000      50.23259386
W        1.59323462       1.59323462      51.82576753
W        0.00000000       3.18646924       0.79657277
W        1.59323462       4.77970386       2.38974643
W        0.00000000       3.18646924       3.98289976
W        1.59323462       4.77970386       5.57600196
W       -0.00000000       3.18646924       7.16914360
W        1.59323462       4.77970386       8.76232548
W       -0.00000000       3.18646924      10.35552376
W        1.59323462       4.77970386      11.94873892
W       -0.00000000       3.18646924      13.54195714
W        1.59323462       4.77970386      15.13512368
W        0.00000000       3.18646924      16.72824473
W        1.59323462       4.77970386      18.32140203
W       -0.00000000       3.18646924      19.91456148
W        1.59323462       4.77970386      21.50772305
W        0.00000000       3.18646924      23.10092020
W        1.59323462       4.77970386      24.69409247
W        0.00000000       3.18646924      27.92824783
W        1.59323462       4.77970386      29.52142009
W       -0.00000000       3.18646924      31.11461724
W        1.59323462       4.77970386      32.70777881
W        0.00000000       3.18646924      34.30093826
W        1.59323462       4.77970386      35.89409557
W       -0.00000000       3.18646924      37.48721662
W        1.59323462       4.77970386      39.08038316
W        0.00000000       3.18646924      40.67360137
W        1.59323462       4.77970386      42.26681654
W       -0.00000000       3.18646924      43.86001481
W        1.59323462       4.77970386      45.45319670
W       -0.00000000       3.18646924      47.04633834
W        1.59323462       4.77970386      48.63944054
W        0.00000000       3.18646924      50.23259386
W        1.59323462       4.77970386      51.82576753
W       -0.00000000       6.37293849       0.79657277
W        1.59323462       7.96617311       2.38974643
W        0.00000000       6.37293849       3.98289976
W        1.59323462       7.96617311       5.57600196
W       -0.00000000       6.37293849       7.16914360
W        1.59323462       7.96617311       8.76232548
W        0.00000000       6.37293849      10.35552376
W        1.59323462       7.96617311      11.94873892
W       -0.00000000       6.37293849      13.54195714
W        1.59323462       7.96617311      15.13512368
W        0.00000000       6.37293849      16.72824473
W        1.59323462       7.96617311      18.32140203
W        0.00000000       6.37293849      19.91456148
W        1.59323462       7.96617311      21.50772305
W       -0.00000000       6.37293849      23.10092020
W        1.59323462       7.96617311      24.69409247
W       -0.00000000       6.37293849      27.92824783
W        1.59323462       7.96617311      29.52142009
W        0.00000000       6.37293849      31.11461724
W        1.59323462       7.96617311      32.70777881
W        0.00000000       6.37293849      34.30093826
W        1.59323462       7.96617311      35.89409557
W        0.00000000       6.37293849      37.48721662
W        1.59323462       7.96617311      39.08038316
W        0.00000000       6.37293849      40.67360137
W        1.59323462       7.96617311      42.26681654
W        0.00000000       6.37293849      43.86001481
W        1.59323462       7.96617311      45.45319670
W       -0.00000000       6.37293849      47.04633834
W        1.59323462       7.96617311      48.63944054
W        0.00000000       6.37293849      50.23259386
W        1.59323462       7.96617311      51.82576753
W        3.18646924       0.00000000       0.79657277
W        4.77970386       1.59323462       2.38974643
W        3.18646924      -0.00000000       3.98289976
W        4.77970386       1.59323462       5.57600196
W        3.18646924       0.00000000       7.16914360
W        4.77970386       1.59323462       8.76232548
W        3.18646924       0.00000000      10.35552376
W        4.77970386       1.59323462      11.94873892
W        3.18646924       0.00000000      13.54195714
W        4.77970386       1.59323462      15.13512368
W        3.18646924       0.00000000      16.72824473
W        4.77970386       1.59323462      18.32140203
W        3.18646924      -0.00000000      19.91456148
W        4.77970386       1.59323462      21.50772305
W        3.18646924       0.00000000      23.10092020
W        4.77970386       1.59323462      24.69409247
W        3.18646924       0.00000000      27.92824783
W        4.77970386       1.59323462      29.52142009
W        3.18646924      -0.00000000      31.11461724
W        4.77970386       1.59323462      32.70777881
W        3.18646924       0.00000000      34.30093826
W        4.77970386       1.59323462      35.89409557
W        3.18646924       0.00000000      37.48721662
W        4.77970386       1.59323462      39.08038316
W        3.18646924       0.00000000      40.67360137
W        4.77970386       1.59323462      42.26681654
W        3.18646924      -0.00000000      43.86001481
W        4.77970386       1.59323462      45.45319670
W        3.18646924       0.00000000      47.04633834
W        4.77970386       1.59323462      48.63944054
W        3.18646924       0.00000000      50.23259386
W        4.77970386       1.59323462      51.82576753
W        3.18646924       3.18646924       0.79657277
W        4.77970386       4.77970386       2.38974643
W        3.18646924       3.18646924       3.98289976
W        4.77970386       4.77970386       5.57600196
W        3.18646924       3.18646924       7.16914360
W        4.77970386       4.77970386       8.76232548
W        3.18646924       3.18646924      10.35552376
W        4.77970386       4.77970386      11.94873892
W        3.18646924       3.18646924      13.54195714
W        4.77970386       4.77970386      15.13512368
W        3.18646924       3.18646924      16.72824473
W        4.77970386       4.77970386      18.32140203
W        3.18646924       3.18646924      19.91456148
W        4.77970386       4.77970386      21.50772305
W        3.18646924       3.18646924      23.10092020
W        4.77970386       4.77970386      24.69409247
W        3.18646924       3.18646924      27.92824783
W        4.77970386       4.77970386      29.52142009
W        3.18646924       3.18646924      31.11461724
W        4.77970386       4.77970386      32.70777881
W        3.18646924       3.18646924      34.30093826
W        4.77970386       4.77970386      35.89409557
W        3.18646924       3.18646924      37.48721662
W        4.77970386       4.77970386      39.08038316
W        3.18646924       3.18646924      40.67360137
W        4.77970386       4.77970386      42.26681654
W        3.18646924       3.18646924      43.86001481
W        4.77970386       4.77970386      45.45319670
W        3.18646924       3.18646924      47.04633834
W        4.77970386       4.77970386      48.63944054
W        3.18646924       3.18646924      50.23259386
W        4.77970386       4.77970386      51.82576753
W        3.18646924       6.37293849       0.79657277
W        4.77970386       7.96617311       2.38974643
W        3.18646924       6.37293849       3.98289976
W        4.77970386       7.96617311       5.57600196
W        3.18646924       6.37293849       7.16914360
W        4.77970386       7.96617311       8.76232548
W        3.18646924       6.37293849      10.35552376
W        4.77970386       7.96617311      11.94873892
W        3.18646924       6.37293849      13.54195714
W        4.77970386       7.96617311      15.13512368
W        3.18646924       6.37293849      16.72824473
W        4.77970386       7.96617311      18.32140203
W        3.18646924       6.37293849      19.91456148
W        4.77970386       7.96617311      21.50772305
W        3.18646924       6.37293849      23.10092020
W        4.77970386       7.96617311      24.69409247
W        3.18646924       6.37293849      27.92824783
W        4.77970386       7.96617311      29.52142009
W        3.18646924       6.37293849      31.11461724
W        4.77970386       7.96617311      32.70777881
W        3.18646924       6.37293849      34.30093826
W        4.77970386       7.96617311      35.89409557
W        3.18646924       6.37293849      37.48721662
W        4.77970386       7.96617311      39.08038316
W        3.18646924       6.37293849      40.67360137
W        4.77970386       7.96617311      42.26681654
W        3.18646924       6.37293849      43.86001481
W        4.77970386       7.96617311      45.45319670
W        3.18646924       6.37293849      47.04633834
W        4.77970386       7.96617311      48.63944054
W        3.18646924       6.37293849      50.23259386
W        4.77970386       7.96617311      51.82576753
W        6.37293849       0.00000000       0.79657277
W        7.96617311       1.59323462       2.38974643
W        6.37293849       0.00000000       3.98289976
W        7.96617311       1.59323462       5.57600196
W        6.37293849       0.00000000       7.16914360
W        7.96617311       1.59323462       8.76232548
W        6.37293849      -0.00000000      10.35552376
W        7.96617311       1.59323462      11.94873892
W        6.37293849       0.00000000      13.54195714
W        7.96617311       1.59323462      15.13512368
W        6.37293849      -0.00000000      16.72824473
W        7.96617311       1.59323462      18.32140203
W        6.37293849       0.00000000      19.91456148
W        7.96617311       1.59323462      21.50772305
W        6.37293849       0.00000000      23.10092020
W        7.96617311       1.59323462      24.69409247
W        6.37293849       0.00000000      27.92824783
W        7.96617311       1.59323462      29.52142009
W        6.37293849       0.00000000      31.11461724
W        7.96617311       1.59323462      32.70777881
W        6.37293849      -0.00000000      34.30093826
W        7.96617311       1.59323462      35.89409557
W        6.37293849       0.00000000      37.48721662
W        7.96617311       1.59323462      39.08038316
W        6.37293849      -0.00000000      40.67360137
W        7.96617311       1.59323462      42.26681654
W        6.37293849       0.00000000      43.86001481
W        7.96617311       1.59323462      45.45319670
W        6.37293849       0.00000000      47.04633834
W        7.96617311       1.59323462      48.63944054
W        6.37293849      -0.00000000      50.23259386
W        7.96617311       1.59323462      51.82576753
W        6.37293849       3.18646924       0.79657277
W        7.96617311       4.77970386       2.38974643
W        6.37293849       3.18646924       3.98289976
W        7.96617311       4.77970386       5.57600196
W        6.37293849       3.18646924       7.16914360
W        7.96617311       4.77970386       8.76232548
W        6.37293849       3.18646924      10.35552376
W        7.96617311       4.77970386      11.94873892
W        6.37293849       3.18646924      13.54195714
W        7.96617311       4.77970386      15.13512368
W        6.37293849       3.18646924      16.72824473
W        7.96617311       4.77970386      18.32140203
W        6.37293849       3.18646924      19.91456148
W        7.96617311       4.77970386      21.50772305
W        6.37293849       3.18646924      23.10092020
W        7.96617311       4.77970386      24.69409247
W        6.37293849       3.18646924      27.92824783
W        7.96617311       4.77970386      29.52142009
W        6.37293849       3.18646924      31.11461724
W        7.96617311       4.77970386      32.70777881
W        6.37293849       3.18646924      34.30093826
W        7.96617311       4.77970386      35.89409557
W        6.37293849       3.18646924      37.48721662
W        7.96617311       4.77970386      39.08038316
W        6.37293849       3.18646924      40.67360137
W        7.96617311       4.77970386      42.26681654
W        6.37293849       3.18646924      43.86001481
W        7.96617311       4.77970386      45.45319670
W        6.37293849       3.18646924      47.04633834
W        7.96617311       4.77970386      48.63944054
W        6.37293849       3.18646924      50.23259386
W        7.96617311       4.77970386      51.82576753
W        6.37293849       6.37293849       0.79657277
W        7.96617311       7.96617311       2.38974643
W        6.37293849       6.37293849       3.98289976
W        7.96617311       7.96617311       5.57600196
W        6.37293849       6.37293849       7.16914360
W        7.96617311       7.96617311       8.76232548
W        6.37293849       6.37293849      10.35552376
W        7.96617311       7.96617311      11.94873892
W        6.37293849       6.37293849      13.54195714
W        7.96617311       7.96617311      15.13512368
W        6.37293849       6.37293849      16.72824473
W        7.96617311       7.96617311      18.32140203
W        6.37293849       6.37293849      19.91456148
W        7.96617311       7.96617311      21.50772305
W        6.37293849       6.37293849      23.10092020
W        7.96617311       7.96617311      24.69409247
W        6.37293849       6.37293849      27.92824783
W        7.96617311       7.96617311      29.52142009
W        6.37293849       6.37293849      31.11461724
W        7.96617311       7.96617311      32.70777881
W        6.37293849       6.37293849      34.30093826
W        7.96617311       7.96617311      35.89409557
W        6.37293849       6.37293849      37.48721662
W        7.96617311       7.96617311      39.08038316
W        6.37293849       6.37293849      40.67360137
W        7.96617311       7.96617311      42.26681654
W        6.37293849       6.37293849      43.86001481
W        7.96617311       7.96617311      45.45319670
W        6.37293849       6.37293849      47.04633834
W        7.96617311       7.96617311      48.63944054
W        6.37293849       6.37293849      50.23259386
W        7.96617311       7.96617311      51.82576753
288
Lattice="9.559407728649656 -9.087318898702386e-18 2.3918883122634095e-17 -9.087318898702381e-18 9.559407728649656 -2.3057458068536844e-17 1.2294658829237918e-16 -1.138024128057971e-16 52.724904397720394" Properties=species:S:1:pos:R:3 vacuum_gap_Ang=1.7435897435897436 frame_index=17 pbc="T T T"
W       -0.00000000       0.00000000       0.79657277
W        1.59323462       1.59323462       2.38974643
W       -0.00000000       0.00000000       3.98289976
W        1.59323462       1.59323462       5.57600196
W       -0.00000000       0.00000000       7.16914360
W        1.59323462       1.59323462       8.76232548
W        0.00000000      -0.00000000      10.35552376
W        1.59323462       1.59323462      11.94873892
W       -0.00000000       0.00000000      13.54195714
W        1.59323462       1.59323462      15.13512368
W        0.00000000       0.00000000      16.72824473
W        1.59323462       1.59323462      18.32140203
W        0.00000000       0.00000000      19.91456148
W        1.59323462       1.59323462      21.50772305
W        0.00000000       0.00000000      23.10092020
W        1.59323462       1.59323462      24.69409247
W       -0.00000000       0.00000000      28.03081193
W        1.59323462       1.59323462      29.62398419
W       -0.00000000       0.00000000      31.21718134
W        1.59323462       1.59323462      32.81034292
W        0.00000000      -0.00000000      34.40350236
W        1.59323462       1.59323462      35.99665967
W        0.00000000      -0.00000000      37.58978072
W        1.59323462       1.59323462      39.18294726
W       -0.00000000      -0.00000000      40.77616547
W        1.59323462       1.59323462      42.36938064
W        0.00000000      -0.00000000      43.96257892
W        1.59323462       1.59323462      45.55576080
W        0.00000000      -0.00000000      47.14890244
W        1.59323462       1.59323462      48.74200464
W        0.00000000       0.00000000      50.33515796
W        1.59323462       1.59323462      51.92833163
W        0.00000000       3.18646924       0.79657277
W        1.59323462       4.77970386       2.38974643
W        0.00000000       3.18646924       3.98289976
W        1.59323462       4.77970386       5.57600196
W       -0.00000000       3.18646924       7.16914360
W        1.59323462       4.77970386       8.76232548
W       -0.00000000       3.18646924      10.35552376
W        1.59323462       4.77970386      11.94873892
W       -0.00000000       3.18646924      13.54195714
W        1.59323462       4.77970386      15.13512368
W        0.00000000       3.18646924      16.72824473
W        1.59323462       4.77970386      18.32140203
W       -0.00000000       3.18646924      19.91456148
W        1.59323462       4.77970386      21.50772305
W        0.00000000       3.18646924      23.10092020
W        1.59323462       4.77970386      24.69409247
W        0.00000000       3.18646924      28.03081193
W        1.59323462       4.77970386      29.62398419
W       -0.00000000       3.18646924      31.21718134
W        1.59323462       4.77970386      32.81034292
W        0.00000000       3.18646924      34.40350236
W        1.59323462       4.77970386      35.99665967
W       -0.00000000       3.18646924      37.58978072
W        1.59323462       4.77970386      39.18294726
W        0.00000000       3.18646924      40.77616547
W        1.59323462       4.77970386      42.36938064
W       -0.00000000       3.18646924      43.96257892
W        1.59323462       4.77970386      45.55576080
W       -0.00000000       3.18646924      47.14890244
W        1.59323462       4.77970386      48.74200464
W        0.00000000       3.18646924      50.33515796
W        1.59323462       4.77970386      51.92833163
W       -0.00000000       6.37293849       0.79657277
W        1.59323462       7.96617311       2.38974643
W        0.00000000       6.37293849       3.98289976
W        1.59323462       7.96617311       5.57600196
W       -0.00000000       6.37293849       7.16914360
W        1.59323462       7.96617311       8.76232548
W        0.00000000       6.37293849      10.35552376
W        1.59323462       7.96617311      11.94873892
W       -0.00000000       6.37293849      13.54195714
W        1.59323462       7.96617311      15.13512368
W        0.00000000       6.37293849      16.72824473
W        1.59323462       7.96617311      18.32140203
W        0.00000000       6.37293849      19.91456148
W        1.59323462       7.96617311      21.50772305
W       -0.00000000       6.37293849      23.10092020
W        1.59323462       7.96617311      24.69409247
W       -0.00000000       6.37293849      28.03081193
W        1.59323462       7.96617311      29.62398419
W        0.00000000       6.37293849      31.21718134
W        1.59323462       7.96617311      32.81034292
W        0.00000000       6.37293849      34.40350236
W        1.59323462       7.96617311      35.99665967
W        0.00000000       6.37293849      37.58978072
W        1.59323462       7.96617311      39.18294726
W        0.00000000       6.37293849      40.77616547
W        1.59323462       7.96617311      42.36938064
W        0.00000000       6.37293849      43.96257892
W        1.59323462       7.96617311      45.55576080
W       -0.00000000       6.37293849      47.14890244
W        1.59323462       7.96617311      48.74200464
W        0.00000000       6.37293849      50.33515796
W        1.59323462       7.96617311      51.92833163
W        3.18646924       0.00000000       0.79657277
W        4.77970386       1.59323462       2.38974643
W        3.18646924      -0.00000000       3.98289976
W        4.77970386       1.59323462       5.57600196
W        3.18646924       0.00000000       7.16914360
W        4.77970386       1.59323462       8.76232548
W        3.18646924       0.00000000      10.35552376
W        4.77970386       1.59323462      11.94873892
W        3.18646924       0.00000000      13.54195714
W        4.77970386       1.59323462      15.13512368
W        3.18646924       0.00000000      16.72824473
W        4.77970386       1.59323462      18.32140203
W        3.18646924      -0.00000000      19.91456148
W        4.77970386       1.59323462      21.50772305
W        3.18646924       0.00000000      23.10092020
W        4.77970386       1.59323462      24.69409247
W        3.18646924       0.00000000      28.03081193
W        4.77970386       1.59323462      29.62398419
W        3.18646924      -0.00000000      31.21718134
W        4.77970386       1.59323462      32.81034292
W        3.18646924       0.00000000      34.40350236
W        4.77970386       1.59323462      35.99665967
W        3.18646924       0.00000000      37.58978072
W        4.77970386       1.59323462      39.18294726
W        3.18646924       0.00000000      40.77616547
W        4.77970386       1.59323462      42.36938064
W        3.18646924      -0.00000000      43.96257892
W        4.77970386       1.59323462      45.55576080
W        3.18646924       0.00000000      47.14890244
W        4.77970386       1.59323462      48.74200464
W        3.18646924       0.00000000      50.33515796
W        4.77970386       1.59323462      51.92833163
W        3.18646924       3.18646924       0.79657277
W        4.77970386       4.77970386       2.38974643
W        3.18646924       3.18646924       3.98289976
W        4.77970386       4.77970386       5.57600196
W        3.18646924       3.18646924       7.16914360
W        4.77970386       4.77970386       8.76232548
W        3.18646924       3.18646924      10.35552376
W        4.77970386       4.77970386      11.94873892
W        3.18646924       3.18646924      13.54195714
W        4.77970386       4.77970386      15.13512368
W        3.18646924       3.18646924      16.72824473
W        4.77970386       4.77970386      18.32140203
W        3.18646924       3.18646924      19.91456148
W        4.77970386       4.77970386      21.50772305
W        3.18646924       3.18646924      23.10092020
W        4.77970386       4.77970386      24.69409247
W        3.18646924       3.18646924      28.03081193
W        4.77970386       4.77970386      29.62398419
W        3.18646924       3.18646924      31.21718134
W        4.77970386       4.77970386      32.81034292
W        3.18646924       3.18646924      34.40350236
W        4.77970386       4.77970386      35.99665967
W        3.18646924       3.18646924      37.58978072
W        4.77970386       4.77970386      39.18294726
W        3.18646924       3.18646924      40.77616547
W        4.77970386       4.77970386      42.36938064
W        3.18646924       3.18646924      43.96257892
W        4.77970386       4.77970386      45.55576080
W        3.18646924       3.18646924      47.14890244
W        4.77970386       4.77970386      48.74200464
W        3.18646924       3.18646924      50.33515796
W        4.77970386       4.77970386      51.92833163
W        3.18646924       6.37293849       0.79657277
W        4.77970386       7.96617311       2.38974643
W        3.18646924       6.37293849       3.98289976
W        4.77970386       7.96617311       5.57600196
W        3.18646924       6.37293849       7.16914360
W        4.77970386       7.96617311       8.76232548
W        3.18646924       6.37293849      10.35552376
W        4.77970386       7.96617311      11.94873892
W        3.18646924       6.37293849      13.54195714
W        4.77970386       7.96617311      15.13512368
W        3.18646924       6.37293849      16.72824473
W        4.77970386       7.96617311      18.32140203
W        3.18646924       6.37293849      19.91456148
W        4.77970386       7.96617311      21.50772305
W        3.18646924       6.37293849      23.10092020
W        4.77970386       7.96617311      24.69409247
W        3.18646924       6.37293849      28.03081193
W        4.77970386       7.96617311      29.62398419
W        3.18646924       6.37293849      31.21718134
W        4.77970386       7.96617311      32.81034292
W        3.18646924       6.37293849      34.40350236
W        4.77970386       7.96617311      35.99665967
W        3.18646924       6.37293849      37.58978072
W        4.77970386       7.96617311      39.18294726
W        3.18646924       6.37293849      40.77616547
W        4.77970386       7.96617311      42.36938064
W        3.18646924       6.37293849      43.96257892
W        4.77970386       7.96617311      45.55576080
W        3.18646924       6.37293849      47.14890244
W        4.77970386       7.96617311      48.74200464
W        3.18646924       6.37293849      50.33515796
W        4.77970386       7.96617311      51.92833163
W        6.37293849       0.00000000       0.79657277
W        7.96617311       1.59323462       2.38974643
W        6.37293849       0.00000000       3.98289976
W        7.96617311       1.59323462       5.57600196
W        6.37293849       0.00000000       7.16914360
W        7.96617311       1.59323462       8.76232548
W        6.37293849      -0.00000000      10.35552376
W        7.96617311       1.59323462      11.94873892
W        6.37293849       0.00000000      13.54195714
W        7.96617311       1.59323462      15.13512368
W        6.37293849      -0.00000000      16.72824473
W        7.96617311       1.59323462      18.32140203
W        6.37293849       0.00000000      19.91456148
W        7.96617311       1.59323462      21.50772305
W        6.37293849       0.00000000      23.10092020
W        7.96617311       1.59323462      24.69409247
W        6.37293849       0.00000000      28.03081193
W        7.96617311       1.59323462      29.62398419
W        6.37293849       0.00000000      31.21718134
W        7.96617311       1.59323462      32.81034292
W        6.37293849      -0.00000000      34.40350236
W        7.96617311       1.59323462      35.99665967
W        6.37293849       0.00000000      37.58978072
W        7.96617311       1.59323462      39.18294726
W        6.37293849      -0.00000000      40.77616547
W        7.96617311       1.59323462      42.36938064
W        6.37293849       0.00000000      43.96257892
W        7.96617311       1.59323462      45.55576080
W        6.37293849       0.00000000      47.14890244
W        7.96617311       1.59323462      48.74200464
W        6.37293849      -0.00000000      50.33515796
W        7.96617311       1.59323462      51.92833163
W        6.37293849       3.18646924       0.79657277
W        7.96617311       4.77970386       2.38974643
W        6.37293849       3.18646924       3.98289976
W        7.96617311       4.77970386       5.57600196
W        6.37293849       3.18646924       7.16914360
W        7.96617311       4.77970386       8.76232548
W        6.37293849       3.18646924      10.35552376
W        7.96617311       4.77970386      11.94873892
W        6.37293849       3.18646924      13.54195714
W        7.96617311       4.77970386      15.13512368
W        6.37293849       3.18646924      16.72824473
W        7.96617311       4.77970386      18.32140203
W        6.37293849       3.18646924      19.91456148
W        7.96617311       4.77970386      21.50772305
W        6.37293849       3.18646924      23.10092020
W        7.96617311       4.77970386      24.69409247
W        6.37293849       3.18646924      28.03081193
W        7.96617311       4.77970386      29.62398419
W        6.37293849       3.18646924      31.21718134
W        7.96617311       4.77970386      32.81034292
W        6.37293849       3.18646924      34.40350236
W        7.96617311       4.77970386      35.99665967
W        6.37293849       3.18646924      37.58978072
W        7.96617311       4.77970386      39.18294726
W        6.37293849       3.18646924      40.77616547
W        7.96617311       4.77970386      42.36938064
W        6.37293849       3.18646924      43.96257892
W        7.96617311       4.77970386      45.55576080
W        6.37293849       3.18646924      47.14890244
W        7.96617311       4.77970386      48.74200464
W        6.37293849       3.18646924      50.33515796
W        7.96617311       4.77970386      51.92833163
W        6.37293849       6.37293849       0.79657277
W        7.96617311       7.96617311       2.38974643
W        6.37293849       6.37293849       3.98289976
W        7.96617311       7.96617311       5.57600196
W        6.37293849       6.37293849       7.16914360
W        7.96617311       7.96617311       8.76232548
W        6.37293849       6.37293849      10.35552376
W        7.96617311       7.96617311      11.94873892
W        6.37293849       6.37293849      13.54195714
W        7.96617311       7.96617311      15.13512368
W        6.37293849       6.37293849      16.72824473
W        7.96617311       7.96617311      18.32140203
W        6.37293849       6.37293849      19.91456148
W        7.96617311       7.96617311      21.50772305
W        6.37293849       6.37293849      23.10092020
W        7.96617311       7.96617311      24.69409247
W        6.37293849       6.37293849      28.03081193
W        7.96617311       7.96617311      29.62398419
W        6.37293849       6.37293849      31.21718134
W        7.96617311       7.96617311      32.81034292
W        6.37293849       6.37293849      34.40350236
W        7.96617311       7.96617311      35.99665967
W        6.37293849       6.37293849      37.58978072
W        7.96617311       7.96617311      39.18294726
W        6.37293849       6.37293849      40.77616547
W        7.96617311       7.96617311      42.36938064
W        6.37293849       6.37293849      43.96257892
W        7.96617311       7.96617311      45.55576080
W        6.37293849       6.37293849      47.14890244
W        7.96617311       7.96617311      48.74200464
W        6.37293849       6.37293849      50.33515796
W        7.96617311       7.96617311      51.92833163
288
Lattice="9.559407728649656 -9.087318898702386e-18 2.3918883122634095e-17 -9.087318898702381e-18 9.559407728649656 -2.3057458068536844e-17 1.2294658829237918e-16 -1.138024128057971e-16 52.827468500284496" Properties=species:S:1:pos:R:3 vacuum_gap_Ang=1.846153846153846 frame_index=18 pbc="T T T"
W       -0.00000000       0.00000000       0.79657277
W        1.59323462       1.59323462       2.38974643
W       -0.00000000       0.00000000       3.98289976
W        1.59323462       1.59323462       5.57600196
W       -0.00000000       0.00000000       7.16914360
W        1.59323462       1.59323462       8.76232548
W        0.00000000      -0.00000000      10.35552376
W        1.59323462       1.59323462      11.94873892
W       -0.00000000       0.00000000      13.54195714
W        1.59323462       1.59323462      15.13512368
W        0.00000000       0.00000000      16.72824473
W        1.59323462       1.59323462      18.32140203
W        0.00000000       0.00000000      19.91456148
W        1.59323462       1.59323462      21.50772305
W        0.00000000       0.00000000      23.10092020
W        1.59323462       1.59323462      24.69409247
W       -0.00000000       0.00000000      28.13337603
W        1.59323462       1.59323462      29.72654830
W       -0.00000000       0.00000000      31.31974545
W        1.59323462       1.59323462      32.91290702
W        0.00000000      -0.00000000      34.50606647
W        1.59323462       1.59323462      36.09922377
W        0.00000000      -0.00000000      37.69234482
W        1.59323462       1.59323462      39.28551136
W       -0.00000000      -0.00000000      40.87872958
W        1.59323462       1.59323462      42.47194474
W        0.00000000      -0.00000000      44.06514302
W        1.59323462       1.59323462      45.65832490
W        0.00000000      -0.00000000      47.25146654
W        1.59323462       1.59323462      48.84456874
W        0.00000000       0.00000000      50.43772207
W        1.59323462       1.59323462      52.03089573
W        0.00000000       3.18646924       0.79657277
W        1.59323462       4.77970386       2.38974643
W        0.00000000       3.18646924       3.98289976
W        1.59323462       4.77970386       5.57600196
W       -0.00000000       3.18646924       7.16914360
W        1.59323462       4.77970386       8.76232548
W       -0.00000000       3.18646924      10.35552376
W        1.59323462       4.77970386      11.94873892
W       -0.00000000       3.18646924      13.54195714
W        1.59323462       4.77970386      15.13512368
W        0.00000000       3.18646924      16.72824473
W        1.59323462       4.77970386      18.32140203
W       -0.00000000       3.18646924      19.91456148
W        1.59323462       4.77970386      21.50772305
W        0.00000000       3.18646924      23.10092020
W        1.59323462       4.77970386      24.69409247
W        0.00000000       3.18646924      28.13337603
W        1.59323462       4.77970386      29.72654830
W       -0.00000000       3.18646924      31.31974545
W        1.59323462       4.77970386      32.91290702
W        0.00000000       3.18646924      34.50606647
W        1.59323462       4.77970386      36.09922377
W       -0.00000000       3.18646924      37.69234482
W        1.59323462       4.77970386      39.28551136
W        0.00000000       3.18646924      40.87872958
W        1.59323462       4.77970386      42.47194474
W       -0.00000000       3.18646924      44.06514302
W        1.59323462       4.77970386      45.65832490
W       -0.00000000       3.18646924      47.25146654
W        1.59323462       4.77970386      48.84456874
W        0.00000000       3.18646924      50.43772207
W        1.59323462       4.77970386      52.03089573
W       -0.00000000       6.37293849       0.79657277
W        1.59323462       7.96617311       2.38974643
W        0.00000000       6.37293849       3.98289976
W        1.59323462       7.96617311       5.57600196
W       -0.00000000       6.37293849       7.16914360
W        1.59323462       7.96617311       8.76232548
W        0.00000000       6.37293849      10.35552376
W        1.59323462       7.96617311      11.94873892
W       -0.00000000       6.37293849      13.54195714
W        1.59323462       7.96617311      15.13512368
W        0.00000000       6.37293849      16.72824473
W        1.59323462       7.96617311      18.32140203
W        0.00000000       6.37293849      19.91456148
W        1.59323462       7.96617311      21.50772305
W       -0.00000000       6.37293849      23.10092020
W        1.59323462       7.96617311      24.69409247
W       -0.00000000       6.37293849      28.13337603
W        1.59323462       7.96617311      29.72654830
W        0.00000000       6.37293849      31.31974545
W        1.59323462       7.96617311      32.91290702
W        0.00000000       6.37293849      34.50606647
W        1.59323462       7.96617311      36.09922377
W        0.00000000       6.37293849      37.69234482
W        1.59323462       7.96617311      39.28551136
W        0.00000000       6.37293849      40.87872958
W        1.59323462       7.96617311      42.47194474
W        0.00000000       6.37293849      44.06514302
W        1.59323462       7.96617311      45.65832490
W       -0.00000000       6.37293849      47.25146654
W        1.59323462       7.96617311      48.84456874
W        0.00000000       6.37293849      50.43772207
W        1.59323462       7.96617311      52.03089573
W        3.18646924       0.00000000       0.79657277
W        4.77970386       1.59323462       2.38974643
W        3.18646924      -0.00000000       3.98289976
W        4.77970386       1.59323462       5.57600196
W        3.18646924       0.00000000       7.16914360
W        4.77970386       1.59323462       8.76232548
W        3.18646924       0.00000000      10.35552376
W        4.77970386       1.59323462      11.94873892
W        3.18646924       0.00000000      13.54195714
W        4.77970386       1.59323462      15.13512368
W        3.18646924       0.00000000      16.72824473
W        4.77970386       1.59323462      18.32140203
W        3.18646924      -0.00000000      19.91456148
W        4.77970386       1.59323462      21.50772305
W        3.18646924       0.00000000      23.10092020
W        4.77970386       1.59323462      24.69409247
W        3.18646924       0.00000000      28.13337603
W        4.77970386       1.59323462      29.72654830
W        3.18646924      -0.00000000      31.31974545
W        4.77970386       1.59323462      32.91290702
W        3.18646924       0.00000000      34.50606647
W        4.77970386       1.59323462      36.09922377
W        3.18646924       0.00000000      37.69234482
W        4.77970386       1.59323462      39.28551136
W        3.18646924       0.00000000      40.87872958
W        4.77970386       1.59323462      42.47194474
W        3.18646924      -0.00000000      44.06514302
W        4.77970386       1.59323462      45.65832490
W        3.18646924       0.00000000      47.25146654
W        4.77970386       1.59323462      48.84456874
W        3.18646924       0.00000000      50.43772207
W        4.77970386       1.59323462      52.03089573
W        3.18646924       3.18646924       0.79657277
W        4.77970386       4.77970386       2.38974643
W        3.18646924       3.18646924       3.98289976
W        4.77970386       4.77970386       5.57600196
W        3.18646924       3.18646924       7.16914360
W        4.77970386       4.77970386       8.76232548
W        3.18646924       3.18646924      10.35552376
W        4.77970386       4.77970386      11.94873892
W        3.18646924       3.18646924      13.54195714
W        4.77970386       4.77970386      15.13512368
W        3.18646924       3.18646924      16.72824473
W        4.77970386       4.77970386      18.32140203
W        3.18646924       3.18646924      19.91456148
W        4.77970386       4.77970386      21.50772305
W        3.18646924       3.18646924      23.10092020
W        4.77970386       4.77970386      24.69409247
W        3.18646924       3.18646924      28.13337603
W        4.77970386       4.77970386      29.72654830
W        3.18646924       3.18646924      31.31974545
W        4.77970386       4.77970386      32.91290702
W        3.18646924       3.18646924      34.50606647
W        4.77970386       4.77970386      36.09922377
W        3.18646924       3.18646924      37.69234482
W        4.77970386       4.77970386      39.28551136
W        3.18646924       3.18646924      40.87872958
W        4.77970386       4.77970386      42.47194474
W        3.18646924       3.18646924      44.06514302
W        4.77970386       4.77970386      45.65832490
W        3.18646924       3.18646924      47.25146654
W        4.77970386       4.77970386      48.84456874
W        3.18646924       3.18646924      50.43772207
W        4.77970386       4.77970386      52.03089573
W        3.18646924       6.37293849       0.79657277
W        4.77970386       7.96617311       2.38974643
W        3.18646924       6.37293849       3.98289976
W        4.77970386       7.96617311       5.57600196
W        3.18646924       6.37293849       7.16914360
W        4.77970386       7.96617311       8.76232548
W        3.18646924       6.37293849      10.35552376
W        4.77970386       7.96617311      11.94873892
W        3.18646924       6.37293849      13.54195714
W        4.77970386       7.96617311      15.13512368
W        3.18646924       6.37293849      16.72824473
W        4.77970386       7.96617311      18.32140203
W        3.18646924       6.37293849      19.91456148
W        4.77970386       7.96617311      21.50772305
W        3.18646924       6.37293849      23.10092020
W        4.77970386       7.96617311      24.69409247
W        3.18646924       6.37293849      28.13337603
W        4.77970386       7.96617311      29.72654830
W        3.18646924       6.37293849      31.31974545
W        4.77970386       7.96617311      32.91290702
W        3.18646924       6.37293849      34.50606647
W        4.77970386       7.96617311      36.09922377
W        3.18646924       6.37293849      37.69234482
W        4.77970386       7.96617311      39.28551136
W        3.18646924       6.37293849      40.87872958
W        4.77970386       7.96617311      42.47194474
W        3.18646924       6.37293849      44.06514302
W        4.77970386       7.96617311      45.65832490
W        3.18646924       6.37293849      47.25146654
W        4.77970386       7.96617311      48.84456874
W        3.18646924       6.37293849      50.43772207
W        4.77970386       7.96617311      52.03089573
W        6.37293849       0.00000000       0.79657277
W        7.96617311       1.59323462       2.38974643
W        6.37293849       0.00000000       3.98289976
W        7.96617311       1.59323462       5.57600196
W        6.37293849       0.00000000       7.16914360
W        7.96617311       1.59323462       8.76232548
W        6.37293849      -0.00000000      10.35552376
W        7.96617311       1.59323462      11.94873892
W        6.37293849       0.00000000      13.54195714
W        7.96617311       1.59323462      15.13512368
W        6.37293849      -0.00000000      16.72824473
W        7.96617311       1.59323462      18.32140203
W        6.37293849       0.00000000      19.91456148
W        7.96617311       1.59323462      21.50772305
W        6.37293849       0.00000000      23.10092020
W        7.96617311       1.59323462      24.69409247
W        6.37293849       0.00000000      28.13337603
W        7.96617311       1.59323462      29.72654830
W        6.37293849       0.00000000      31.31974545
W        7.96617311       1.59323462      32.91290702
W        6.37293849      -0.00000000      34.50606647
W        7.96617311       1.59323462      36.09922377
W        6.37293849       0.00000000      37.69234482
W        7.96617311       1.59323462      39.28551136
W        6.37293849      -0.00000000      40.87872958
W        7.96617311       1.59323462      42.47194474
W        6.37293849       0.00000000      44.06514302
W        7.96617311       1.59323462      45.65832490
W        6.37293849       0.00000000      47.25146654
W        7.96617311       1.59323462      48.84456874
W        6.37293849      -0.00000000      50.43772207
W        7.96617311       1.59323462      52.03089573
W        6.37293849       3.18646924       0.79657277
W        7.96617311       4.77970386       2.38974643
W        6.37293849       3.18646924       3.98289976
W        7.96617311       4.77970386       5.57600196
W        6.37293849       3.18646924       7.16914360
W        7.96617311       4.77970386       8.76232548
W        6.37293849       3.18646924      10.35552376
W        7.96617311       4.77970386      11.94873892
W        6.37293849       3.18646924      13.54195714
W        7.96617311       4.77970386      15.13512368
W        6.37293849       3.18646924      16.72824473
W        7.96617311       4.77970386      18.32140203
W        6.37293849       3.18646924      19.91456148
W        7.96617311       4.77970386      21.50772305
W        6.37293849       3.18646924      23.10092020
W        7.96617311       4.77970386      24.69409247
W        6.37293849       3.18646924      28.13337603
W        7.96617311       4.77970386      29.72654830
W        6.37293849       3.18646924      31.31974545
W        7.96617311       4.77970386      32.91290702
W        6.37293849       3.18646924      34.50606647
W        7.96617311       4.77970386      36.09922377
W        6.37293849       3.18646924      37.69234482
W        7.96617311       4.77970386      39.28551136
W        6.37293849       3.18646924      40.87872958
W        7.96617311       4.77970386      42.47194474
W        6.37293849       3.18646924      44.06514302
W        7.96617311       4.77970386      45.65832490
W        6.37293849       3.18646924      47.25146654
W        7.96617311       4.77970386      48.84456874
W        6.37293849       3.18646924      50.43772207
W        7.96617311       4.77970386      52.03089573
W        6.37293849       6.37293849       0.79657277
W        7.96617311       7.96617311       2.38974643
W        6.37293849       6.37293849       3.98289976
W        7.96617311       7.96617311       5.57600196
W        6.37293849       6.37293849       7.16914360
W        7.96617311       7.96617311       8.76232548
W        6.37293849       6.37293849      10.35552376
W        7.96617311       7.96617311      11.94873892
W        6.37293849       6.37293849      13.54195714
W        7.96617311       7.96617311      15.13512368
W        6.37293849       6.37293849      16.72824473
W        7.96617311       7.96617311      18.32140203
W        6.37293849       6.37293849      19.91456148
W        7.96617311       7.96617311      21.50772305
W        6.37293849       6.37293849      23.10092020
W        7.96617311       7.96617311      24.69409247
W        6.37293849       6.37293849      28.13337603
W        7.96617311       7.96617311      29.72654830
W        6.37293849       6.37293849      31.31974545
W        7.96617311       7.96617311      32.91290702
W        6.37293849       6.37293849      34.50606647
W        7.96617311       7.96617311      36.09922377
W        6.37293849       6.37293849      37.69234482
W        7.96617311       7.96617311      39.28551136
W        6.37293849       6.37293849      40.87872958
W        7.96617311       7.96617311      42.47194474
W        6.37293849       6.37293849      44.06514302
W        7.96617311       7.96617311      45.65832490
W        6.37293849       6.37293849      47.25146654
W        7.96617311       7.96617311      48.84456874
W        6.37293849       6.37293849      50.43772207
W        7.96617311       7.96617311      52.03089573
288
Lattice="9.559407728649656 -9.087318898702386e-18 2.3918883122634095e-17 -9.087318898702381e-18 9.559407728649656 -2.3057458068536844e-17 1.2294658829237918e-16 -1.138024128057971e-16 52.9300326028486" Properties=species:S:1:pos:R:3 vacuum_gap_Ang=1.9487179487179487 frame_index=19 pbc="T T T"
W       -0.00000000       0.00000000       0.79657277
W        1.59323462       1.59323462       2.38974643
W       -0.00000000       0.00000000       3.98289976
W        1.59323462       1.59323462       5.57600196
W       -0.00000000       0.00000000       7.16914360
W        1.59323462       1.59323462       8.76232548
W        0.00000000      -0.00000000      10.35552376
W        1.59323462       1.59323462      11.94873892
W       -0.00000000       0.00000000      13.54195714
W        1.59323462       1.59323462      15.13512368
W        0.00000000       0.00000000      16.72824473
W        1.59323462       1.59323462      18.32140203
W        0.00000000       0.00000000      19.91456148
W        1.59323462       1.59323462      21.50772305
W        0.00000000       0.00000000      23.10092020
W        1.59323462       1.59323462      24.69409247
W       -0.00000000       0.00000000      28.23594014
W        1.59323462       1.59323462      29.82911240
W       -0.00000000       0.00000000      31.42230955
W        1.59323462       1.59323462      33.01547112
W        0.00000000      -0.00000000      34.60863057
W        1.59323462       1.59323462      36.20178788
W        0.00000000      -0.00000000      37.79490892
W        1.59323462       1.59323462      39.38807547
W       -0.00000000      -0.00000000      40.98129368
W        1.59323462       1.59323462      42.57450884
W        0.00000000      -0.00000000      44.16770712
W        1.59323462       1.59323462      45.76088900
W        0.00000000      -0.00000000      47.35403064
W        1.59323462       1.59323462      48.94713284
W        0.00000000       0.00000000      50.54028617
W        1.59323462       1.59323462      52.13345983
W        0.00000000       3.18646924       0.79657277
W        1.59323462       4.77970386       2.38974643
W        0.00000000       3.18646924       3.98289976
W        1.59323462       4.77970386       5.57600196
W       -0.00000000       3.18646924       7.16914360
W        1.59323462       4.77970386       8.76232548
W       -0.00000000       3.18646924      10.35552376
W        1.59323462       4.77970386      11.94873892
W       -0.00000000       3.18646924      13.54195714
W        1.59323462       4.77970386      15.13512368
W        0.00000000       3.18646924      16.72824473
W        1.59323462       4.77970386      18.32140203
W       -0.00000000       3.18646924      19.91456148
W        1.59323462       4.77970386      21.50772305
W        0.00000000       3.18646924      23.10092020
W        1.59323462       4.77970386      24.69409247
W        0.00000000       3.18646924      28.23594014
W        1.59323462       4.77970386      29.82911240
W       -0.00000000       3.18646924      31.42230955
W        1.59323462       4.77970386      33.01547112
W        0.00000000       3.18646924      34.60863057
W        1.59323462       4.77970386      36.20178788
W       -0.00000000       3.18646924      37.79490892
W        1.59323462       4.77970386      39.38807547
W        0.00000000       3.18646924      40.98129368
W        1.59323462       4.77970386      42.57450884
W       -0.00000000       3.18646924      44.16770712
W        1.59323462       4.77970386      45.76088900
W       -0.00000000       3.18646924      47.35403064
W        1.59323462       4.77970386      48.94713284
W        0.00000000       3.18646924      50.54028617
W        1.59323462       4.77970386      52.13345983
W       -0.00000000       6.37293849       0.79657277
W        1.59323462       7.96617311       2.38974643
W        0.00000000       6.37293849       3.98289976
W        1.59323462       7.96617311       5.57600196
W       -0.00000000       6.37293849       7.16914360
W        1.59323462       7.96617311       8.76232548
W        0.00000000       6.37293849      10.35552376
W        1.59323462       7.96617311      11.94873892
W       -0.00000000       6.37293849      13.54195714
W        1.59323462       7.96617311      15.13512368
W        0.00000000       6.37293849      16.72824473
W        1.59323462       7.96617311      18.32140203
W        0.00000000       6.37293849      19.91456148
W        1.59323462       7.96617311      21.50772305
W       -0.00000000       6.37293849      23.10092020
W        1.59323462       7.96617311      24.69409247
W       -0.00000000       6.37293849      28.23594014
W        1.59323462       7.96617311      29.82911240
W        0.00000000       6.37293849      31.42230955
W        1.59323462       7.96617311      33.01547112
W        0.00000000       6.37293849      34.60863057
W        1.59323462       7.96617311      36.20178788
W        0.00000000       6.37293849      37.79490892
W        1.59323462       7.96617311      39.38807547
W        0.00000000       6.37293849      40.98129368
W        1.59323462       7.96617311      42.57450884
W        0.00000000       6.37293849      44.16770712
W        1.59323462       7.96617311      45.76088900
W       -0.00000000       6.37293849      47.35403064
W        1.59323462       7.96617311      48.94713284
W        0.00000000       6.37293849      50.54028617
W        1.59323462       7.96617311      52.13345983
W        3.18646924       0.00000000       0.79657277
W        4.77970386       1.59323462       2.38974643
W        3.18646924      -0.00000000       3.98289976
W        4.77970386       1.59323462       5.57600196
W        3.18646924       0.00000000       7.16914360
W        4.77970386       1.59323462       8.76232548
W        3.18646924       0.00000000      10.35552376
W        4.77970386       1.59323462      11.94873892
W        3.18646924       0.00000000      13.54195714
W        4.77970386       1.59323462      15.13512368
W        3.18646924       0.00000000      16.72824473
W        4.77970386       1.59323462      18.32140203
W        3.18646924      -0.00000000      19.91456148
W        4.77970386       1.59323462      21.50772305
W        3.18646924       0.00000000      23.10092020
W        4.77970386       1.59323462      24.69409247
W        3.18646924       0.00000000      28.23594014
W        4.77970386       1.59323462      29.82911240
W        3.18646924      -0.00000000      31.42230955
W        4.77970386       1.59323462      33.01547112
W        3.18646924       0.00000000      34.60863057
W        4.77970386       1.59323462      36.20178788
W        3.18646924       0.00000000      37.79490892
W        4.77970386       1.59323462      39.38807547
W        3.18646924       0.00000000      40.98129368
W        4.77970386       1.59323462      42.57450884
W        3.18646924      -0.00000000      44.16770712
W        4.77970386       1.59323462      45.76088900
W        3.18646924       0.00000000      47.35403064
W        4.77970386       1.59323462      48.94713284
W        3.18646924       0.00000000      50.54028617
W        4.77970386       1.59323462      52.13345983
W        3.18646924       3.18646924       0.79657277
W        4.77970386       4.77970386       2.38974643
W        3.18646924       3.18646924       3.98289976
W        4.77970386       4.77970386       5.57600196
W        3.18646924       3.18646924       7.16914360
W        4.77970386       4.77970386       8.76232548
W        3.18646924       3.18646924      10.35552376
W        4.77970386       4.77970386      11.94873892
W        3.18646924       3.18646924      13.54195714
W        4.77970386       4.77970386      15.13512368
W        3.18646924       3.18646924      16.72824473
W        4.77970386       4.77970386      18.32140203
W        3.18646924       3.18646924      19.91456148
W        4.77970386       4.77970386      21.50772305
W        3.18646924       3.18646924      23.10092020
W        4.77970386       4.77970386      24.69409247
W        3.18646924       3.18646924      28.23594014
W        4.77970386       4.77970386      29.82911240
W        3.18646924       3.18646924      31.42230955
W        4.77970386       4.77970386      33.01547112
W        3.18646924       3.18646924      34.60863057
W        4.77970386       4.77970386      36.20178788
W        3.18646924       3.18646924      37.79490892
W        4.77970386       4.77970386      39.38807547
W        3.18646924       3.18646924      40.98129368
W        4.77970386       4.77970386      42.57450884
W        3.18646924       3.18646924      44.16770712
W        4.77970386       4.77970386      45.76088900
W        3.18646924       3.18646924      47.35403064
W        4.77970386       4.77970386      48.94713284
W        3.18646924       3.18646924      50.54028617
W        4.77970386       4.77970386      52.13345983
W        3.18646924       6.37293849       0.79657277
W        4.77970386       7.96617311       2.38974643
W        3.18646924       6.37293849       3.98289976
W        4.77970386       7.96617311       5.57600196
W        3.18646924       6.37293849       7.16914360
W        4.77970386       7.96617311       8.76232548
W        3.18646924       6.37293849      10.35552376
W        4.77970386       7.96617311      11.94873892
W        3.18646924       6.37293849      13.54195714
W        4.77970386       7.96617311      15.13512368
W        3.18646924       6.37293849      16.72824473
W        4.77970386       7.96617311      18.32140203
W        3.18646924       6.37293849      19.91456148
W        4.77970386       7.96617311      21.50772305
W        3.18646924       6.37293849      23.10092020
W        4.77970386       7.96617311      24.69409247
W        3.18646924       6.37293849      28.23594014
W        4.77970386       7.96617311      29.82911240
W        3.18646924       6.37293849      31.42230955
W        4.77970386       7.96617311      33.01547112
W        3.18646924       6.37293849      34.60863057
W        4.77970386       7.96617311      36.20178788
W        3.18646924       6.37293849      37.79490892
W        4.77970386       7.96617311      39.38807547
W        3.18646924       6.37293849      40.98129368
W        4.77970386       7.96617311      42.57450884
W        3.18646924       6.37293849      44.16770712
W        4.77970386       7.96617311      45.76088900
W        3.18646924       6.37293849      47.35403064
W        4.77970386       7.96617311      48.94713284
W        3.18646924       6.37293849      50.54028617
W        4.77970386       7.96617311      52.13345983
W        6.37293849       0.00000000       0.79657277
W        7.96617311       1.59323462       2.38974643
W        6.37293849       0.00000000       3.98289976
W        7.96617311       1.59323462       5.57600196
W        6.37293849       0.00000000       7.16914360
W        7.96617311       1.59323462       8.76232548
W        6.37293849      -0.00000000      10.35552376
W        7.96617311       1.59323462      11.94873892
W        6.37293849       0.00000000      13.54195714
W        7.96617311       1.59323462      15.13512368
W        6.37293849      -0.00000000      16.72824473
W        7.96617311       1.59323462      18.32140203
W        6.37293849       0.00000000      19.91456148
W        7.96617311       1.59323462      21.50772305
W        6.37293849       0.00000000      23.10092020
W        7.96617311       1.59323462      24.69409247
W        6.37293849       0.00000000      28.23594014
W        7.96617311       1.59323462      29.82911240
W        6.37293849       0.00000000      31.42230955
W        7.96617311       1.59323462      33.01547112
W        6.37293849      -0.00000000      34.60863057
W        7.96617311       1.59323462      36.20178788
W        6.37293849       0.00000000      37.79490892
W        7.96617311       1.59323462      39.38807547
W        6.37293849      -0.00000000      40.98129368
W        7.96617311       1.59323462      42.57450884
W        6.37293849       0.00000000      44.16770712
W        7.96617311       1.59323462      45.76088900
W        6.37293849       0.00000000      47.35403064
W        7.96617311       1.59323462      48.94713284
W        6.37293849      -0.00000000      50.54028617
W        7.96617311       1.59323462      52.13345983
W        6.37293849       3.18646924       0.79657277
W        7.96617311       4.77970386       2.38974643
W        6.37293849       3.18646924       3.98289976
W        7.96617311       4.77970386       5.57600196
W        6.37293849       3.18646924       7.16914360
W        7.96617311       4.77970386       8.76232548
W        6.37293849       3.18646924      10.35552376
W        7.96617311       4.77970386      11.94873892
W        6.37293849       3.18646924      13.54195714
W        7.96617311       4.77970386      15.13512368
W        6.37293849       3.18646924      16.72824473
W        7.96617311       4.77970386      18.32140203
W        6.37293849       3.18646924      19.91456148
W        7.96617311       4.77970386      21.50772305
W        6.37293849       3.18646924      23.10092020
W        7.96617311       4.77970386      24.69409247
W        6.37293849       3.18646924      28.23594014
W        7.96617311       4.77970386      29.82911240
W        6.37293849       3.18646924      31.42230955
W        7.96617311       4.77970386      33.01547112
W        6.37293849       3.18646924      34.60863057
W        7.96617311       4.77970386      36.20178788
W        6.37293849       3.18646924      37.79490892
W        7.96617311       4.77970386      39.38807547
W        6.37293849       3.18646924      40.98129368
W        7.96617311       4.77970386      42.57450884
W        6.37293849       3.18646924      44.16770712
W        7.96617311       4.77970386      45.76088900
W        6.37293849       3.18646924      47.35403064
W        7.96617311       4.77970386      48.94713284
W        6.37293849       3.18646924      50.54028617
W        7.96617311       4.77970386      52.13345983
W        6.37293849       6.37293849       0.79657277
W        7.96617311       7.96617311       2.38974643
W        6.37293849       6.37293849       3.98289976
W        7.96617311       7.96617311       5.57600196
W        6.37293849       6.37293849       7.16914360
W        7.96617311       7.96617311       8.76232548
W        6.37293849       6.37293849      10.35552376
W        7.96617311       7.96617311      11.94873892
W        6.37293849       6.37293849      13.54195714
W        7.96617311       7.96617311      15.13512368
W        6.37293849       6.37293849      16.72824473
W        7.96617311       7.96617311      18.32140203
W        6.37293849       6.37293849      19.91456148
W        7.96617311       7.96617311      21.50772305
W        6.37293849       6.37293849      23.10092020
W        7.96617311       7.96617311      24.69409247
W        6.37293849       6.37293849      28.23594014
W        7.96617311       7.96617311      29.82911240
W        6.37293849       6.37293849      31.42230955
W        7.96617311       7.96617311      33.01547112
W        6.37293849       6.37293849      34.60863057
W        7.96617311       7.96617311      36.20178788
W        6.37293849       6.37293849      37.79490892
W        7.96617311       7.96617311      39.38807547
W        6.37293849       6.37293849      40.98129368
W        7.96617311       7.96617311      42.57450884
W        6.37293849       6.37293849      44.16770712
W        7.96617311       7.96617311      45.76088900
W        6.37293849       6.37293849      47.35403064
W        7.96617311       7.96617311      48.94713284
W        6.37293849       6.37293849      50.54028617
W        7.96617311       7.96617311      52.13345983
288
Lattice="9.559407728649656 -9.087318898702386e-18 2.3918883122634095e-17 -9.087318898702381e-18 9.559407728649656 -2.3057458068536844e-17 1.2294658829237918e-16 -1.138024128057971e-16 53.0325967054127" Properties=species:S:1:pos:R:3 vacuum_gap_Ang=2.051282051282051 frame_index=20 pbc="T T T"
W       -0.00000000       0.00000000       0.79657277
W        1.59323462       1.59323462       2.38974643
W       -0.00000000       0.00000000       3.98289976
W        1.59323462       1.59323462       5.57600196
W       -0.00000000       0.00000000       7.16914360
W        1.59323462       1.59323462       8.76232548
W        0.00000000      -0.00000000      10.35552376
W        1.59323462       1.59323462      11.94873892
W       -0.00000000       0.00000000      13.54195714
W        1.59323462       1.59323462      15.13512368
W        0.00000000       0.00000000      16.72824473
W        1.59323462       1.59323462      18.32140203
W        0.00000000       0.00000000      19.91456148
W        1.59323462       1.59323462      21.50772305
W        0.00000000       0.00000000      23.10092020
W        1.59323462       1.59323462      24.69409247
W       -0.00000000       0.00000000      28.33850424
W        1.59323462       1.59323462      29.93167650
W       -0.00000000       0.00000000      31.52487365
W        1.59323462       1.59323462      33.11803522
W        0.00000000      -0.00000000      34.71119467
W        1.59323462       1.59323462      36.30435198
W        0.00000000      -0.00000000      37.89747303
W        1.59323462       1.59323462      39.49063957
W       -0.00000000      -0.00000000      41.08385778
W        1.59323462       1.59323462      42.67707295
W        0.00000000      -0.00000000      44.27027122
W        1.59323462       1.59323462      45.86345311
W        0.00000000      -0.00000000      47.45659475
W        1.59323462       1.59323462      49.04969695
W        0.00000000       0.00000000      50.64285027
W        1.59323462       1.59323462      52.23602394
W        0.00000000       3.18646924       0.79657277
W        1.59323462       4.77970386       2.38974643
W        0.00000000       3.18646924       3.98289976
W        1.59323462       4.77970386       5.57600196
W       -0.00000000       3.18646924       7.16914360
W        1.59323462       4.77970386       8.76232548
W       -0.00000000       3.18646924      10.35552376
W        1.59323462       4.77970386      11.94873892
W       -0.00000000       3.18646924      13.54195714
W        1.59323462       4.77970386      15.13512368
W        0.00000000       3.18646924      16.72824473
W        1.59323462       4.77970386      18.32140203
W       -0.00000000       3.18646924      19.91456148
W        1.59323462       4.77970386      21.50772305
W        0.00000000       3.18646924      23.10092020
W        1.59323462       4.77970386      24.69409247
W        0.00000000       3.18646924      28.33850424
W        1.59323462       4.77970386      29.93167650
W       -0.00000000       3.18646924      31.52487365
W        1.59323462       4.77970386      33.11803522
W        0.00000000       3.18646924      34.71119467
W        1.59323462       4.77970386      36.30435198
W       -0.00000000       3.18646924      37.89747303
W        1.59323462       4.77970386      39.49063957
W        0.00000000       3.18646924      41.08385778
W        1.59323462       4.77970386      42.67707295
W       -0.00000000       3.18646924      44.27027122
W        1.59323462       4.77970386      45.86345311
W       -0.00000000       3.18646924      47.45659475
W        1.59323462       4.77970386      49.04969695
W        0.00000000       3.18646924      50.64285027
W        1.59323462       4.77970386      52.23602394
W       -0.00000000       6.37293849       0.79657277
W        1.59323462       7.96617311       2.38974643
W        0.00000000       6.37293849       3.98289976
W        1.59323462       7.96617311       5.57600196
W       -0.00000000       6.37293849       7.16914360
W        1.59323462       7.96617311       8.76232548
W        0.00000000       6.37293849      10.35552376
W        1.59323462       7.96617311      11.94873892
W       -0.00000000       6.37293849      13.54195714
W        1.59323462       7.96617311      15.13512368
W        0.00000000       6.37293849      16.72824473
W        1.59323462       7.96617311      18.32140203
W        0.00000000       6.37293849      19.91456148
W        1.59323462       7.96617311      21.50772305
W       -0.00000000       6.37293849      23.10092020
W        1.59323462       7.96617311      24.69409247
W       -0.00000000       6.37293849      28.33850424
W        1.59323462       7.96617311      29.93167650
W        0.00000000       6.37293849      31.52487365
W        1.59323462       7.96617311      33.11803522
W        0.00000000       6.37293849      34.71119467
W        1.59323462       7.96617311      36.30435198
W        0.00000000       6.37293849      37.89747303
W        1.59323462       7.96617311      39.49063957
W        0.00000000       6.37293849      41.08385778
W        1.59323462       7.96617311      42.67707295
W        0.00000000       6.37293849      44.27027122
W        1.59323462       7.96617311      45.86345311
W       -0.00000000       6.37293849      47.45659475
W        1.59323462       7.96617311      49.04969695
W        0.00000000       6.37293849      50.64285027
W        1.59323462       7.96617311      52.23602394
W        3.18646924       0.00000000       0.79657277
W        4.77970386       1.59323462       2.38974643
W        3.18646924      -0.00000000       3.98289976
W        4.77970386       1.59323462       5.57600196
W        3.18646924       0.00000000       7.16914360
W        4.77970386       1.59323462       8.76232548
W        3.18646924       0.00000000      10.35552376
W        4.77970386       1.59323462      11.94873892
W        3.18646924       0.00000000      13.54195714
W        4.77970386       1.59323462      15.13512368
W        3.18646924       0.00000000      16.72824473
W        4.77970386       1.59323462      18.32140203
W        3.18646924      -0.00000000      19.91456148
W        4.77970386       1.59323462      21.50772305
W        3.18646924       0.00000000      23.10092020
W        4.77970386       1.59323462      24.69409247
W        3.18646924       0.00000000      28.33850424
W        4.77970386       1.59323462      29.93167650
W        3.18646924      -0.00000000      31.52487365
W        4.77970386       1.59323462      33.11803522
W        3.18646924       0.00000000      34.71119467
W        4.77970386       1.59323462      36.30435198
W        3.18646924       0.00000000      37.89747303
W        4.77970386       1.59323462      39.49063957
W        3.18646924       0.00000000      41.08385778
W        4.77970386       1.59323462      42.67707295
W        3.18646924      -0.00000000      44.27027122
W        4.77970386       1.59323462      45.86345311
W        3.18646924       0.00000000      47.45659475
W        4.77970386       1.59323462      49.04969695
W        3.18646924       0.00000000      50.64285027
W        4.77970386       1.59323462      52.23602394
W        3.18646924       3.18646924       0.79657277
W        4.77970386       4.77970386       2.38974643
W        3.18646924       3.18646924       3.98289976
W        4.77970386       4.77970386       5.57600196
W        3.18646924       3.18646924       7.16914360
W        4.77970386       4.77970386       8.76232548
W        3.18646924       3.18646924      10.35552376
W        4.77970386       4.77970386      11.94873892
W        3.18646924       3.18646924      13.54195714
W        4.77970386       4.77970386      15.13512368
W        3.18646924       3.18646924      16.72824473
W        4.77970386       4.77970386      18.32140203
W        3.18646924       3.18646924      19.91456148
W        4.77970386       4.77970386      21.50772305
W        3.18646924       3.18646924      23.10092020
W        4.77970386       4.77970386      24.69409247
W        3.18646924       3.18646924      28.33850424
W        4.77970386       4.77970386      29.93167650
W        3.18646924       3.18646924      31.52487365
W        4.77970386       4.77970386      33.11803522
W        3.18646924       3.18646924      34.71119467
W        4.77970386       4.77970386      36.30435198
W        3.18646924       3.18646924      37.89747303
W        4.77970386       4.77970386      39.49063957
W        3.18646924       3.18646924      41.08385778
W        4.77970386       4.77970386      42.67707295
W        3.18646924       3.18646924      44.27027122
W        4.77970386       4.77970386      45.86345311
W        3.18646924       3.18646924      47.45659475
W        4.77970386       4.77970386      49.04969695
W        3.18646924       3.18646924      50.64285027
W        4.77970386       4.77970386      52.23602394
W        3.18646924       6.37293849       0.79657277
W        4.77970386       7.96617311       2.38974643
W        3.18646924       6.37293849       3.98289976
W        4.77970386       7.96617311       5.57600196
W        3.18646924       6.37293849       7.16914360
W        4.77970386       7.96617311       8.76232548
W        3.18646924       6.37293849      10.35552376
W        4.77970386       7.96617311      11.94873892
W        3.18646924       6.37293849      13.54195714
W        4.77970386       7.96617311      15.13512368
W        3.18646924       6.37293849      16.72824473
W        4.77970386       7.96617311      18.32140203
W        3.18646924       6.37293849      19.91456148
W        4.77970386       7.96617311      21.50772305
W        3.18646924       6.37293849      23.10092020
W        4.77970386       7.96617311      24.69409247
W        3.18646924       6.37293849      28.33850424
W        4.77970386       7.96617311      29.93167650
W        3.18646924       6.37293849      31.52487365
W        4.77970386       7.96617311      33.11803522
W        3.18646924       6.37293849      34.71119467
W        4.77970386       7.96617311      36.30435198
W        3.18646924       6.37293849      37.89747303
W        4.77970386       7.96617311      39.49063957
W        3.18646924       6.37293849      41.08385778
W        4.77970386       7.96617311      42.67707295
W        3.18646924       6.37293849      44.27027122
W        4.77970386       7.96617311      45.86345311
W        3.18646924       6.37293849      47.45659475
W        4.77970386       7.96617311      49.04969695
W        3.18646924       6.37293849      50.64285027
W        4.77970386       7.96617311      52.23602394
W        6.37293849       0.00000000       0.79657277
W        7.96617311       1.59323462       2.38974643
W        6.37293849       0.00000000       3.98289976
W        7.96617311       1.59323462       5.57600196
W        6.37293849       0.00000000       7.16914360
W        7.96617311       1.59323462       8.76232548
W        6.37293849      -0.00000000      10.35552376
W        7.96617311       1.59323462      11.94873892
W        6.37293849       0.00000000      13.54195714
W        7.96617311       1.59323462      15.13512368
W        6.37293849      -0.00000000      16.72824473
W        7.96617311       1.59323462      18.32140203
W        6.37293849       0.00000000      19.91456148
W        7.96617311       1.59323462      21.50772305
W        6.37293849       0.00000000      23.10092020
W        7.96617311       1.59323462      24.69409247
W        6.37293849       0.00000000      28.33850424
W        7.96617311       1.59323462      29.93167650
W        6.37293849       0.00000000      31.52487365
W        7.96617311       1.59323462      33.11803522
W        6.37293849      -0.00000000      34.71119467
W        7.96617311       1.59323462      36.30435198
W        6.37293849       0.00000000      37.89747303
W        7.96617311       1.59323462      39.49063957
W        6.37293849      -0.00000000      41.08385778
W        7.96617311       1.59323462      42.67707295
W        6.37293849       0.00000000      44.27027122
W        7.96617311       1.59323462      45.86345311
W        6.37293849       0.00000000      47.45659475
W        7.96617311       1.59323462      49.04969695
W        6.37293849      -0.00000000      50.64285027
W        7.96617311       1.59323462      52.23602394
W        6.37293849       3.18646924       0.79657277
W        7.96617311       4.77970386       2.38974643
W        6.37293849       3.18646924       3.98289976
W        7.96617311       4.77970386       5.57600196
W        6.37293849       3.18646924       7.16914360
W        7.96617311       4.77970386       8.76232548
W        6.37293849       3.18646924      10.35552376
W        7.96617311       4.77970386      11.94873892
W        6.37293849       3.18646924      13.54195714
W        7.96617311       4.77970386      15.13512368
W        6.37293849       3.18646924      16.72824473
W        7.96617311       4.77970386      18.32140203
W        6.37293849       3.18646924      19.91456148
W        7.96617311       4.77970386      21.50772305
W        6.37293849       3.18646924      23.10092020
W        7.96617311       4.77970386      24.69409247
W        6.37293849       3.18646924      28.33850424
W        7.96617311       4.77970386      29.93167650
W        6.37293849       3.18646924      31.52487365
W        7.96617311       4.77970386      33.11803522
W        6.37293849       3.18646924      34.71119467
W        7.96617311       4.77970386      36.30435198
W        6.37293849       3.18646924      37.89747303
W        7.96617311       4.77970386      39.49063957
W        6.37293849       3.18646924      41.08385778
W        7.96617311       4.77970386      42.67707295
W        6.37293849       3.18646924      44.27027122
W        7.96617311       4.77970386      45.86345311
W        6.37293849       3.18646924      47.45659475
W        7.96617311       4.77970386      49.04969695
W        6.37293849       3.18646924      50.64285027
W        7.96617311       4.77970386      52.23602394
W        6.37293849       6.37293849       0.79657277
W        7.96617311       7.96617311       2.38974643
W        6.37293849       6.37293849       3.98289976
W        7.96617311       7.96617311       5.57600196
W        6.37293849       6.37293849       7.16914360
W        7.96617311       7.96617311       8.76232548
W        6.37293849       6.37293849      10.35552376
W        7.96617311       7.96617311      11.94873892
W        6.37293849       6.37293849      13.54195714
W        7.96617311       7.96617311      15.13512368
W        6.37293849       6.37293849      16.72824473
W        7.96617311       7.96617311      18.32140203
W        6.37293849       6.37293849      19.91456148
W        7.96617311       7.96617311      21.50772305
W        6.37293849       6.37293849      23.10092020
W        7.96617311       7.96617311      24.69409247
W        6.37293849       6.37293849      28.33850424
W        7.96617311       7.96617311      29.93167650
W        6.37293849       6.37293849      31.52487365
W        7.96617311       7.96617311      33.11803522
W        6.37293849       6.37293849      34.71119467
W        7.96617311       7.96617311      36.30435198
W        6.37293849       6.37293849      37.89747303
W        7.96617311       7.96617311      39.49063957
W        6.37293849       6.37293849      41.08385778
W        7.96617311       7.96617311      42.67707295
W        6.37293849       6.37293849      44.27027122
W        7.96617311       7.96617311      45.86345311
W        6.37293849       6.37293849      47.45659475
W        7.96617311       7.96617311      49.04969695
W        6.37293849       6.37293849      50.64285027
W        7.96617311       7.96617311      52.23602394
288
Lattice="9.559407728649656 -9.087318898702386e-18 2.3918883122634095e-17 -9.087318898702381e-18 9.559407728649656 -2.3057458068536844e-17 1.2294658829237918e-16 -1.138024128057971e-16 53.1351608079768" Properties=species:S:1:pos:R:3 vacuum_gap_Ang=2.1538461538461537 frame_index=21 pbc="T T T"
W       -0.00000000       0.00000000       0.79657277
W        1.59323462       1.59323462       2.38974643
W       -0.00000000       0.00000000       3.98289976
W        1.59323462       1.59323462       5.57600196
W       -0.00000000       0.00000000       7.16914360
W        1.59323462       1.59323462       8.76232548
W        0.00000000      -0.00000000      10.35552376
W        1.59323462       1.59323462      11.94873892
W       -0.00000000       0.00000000      13.54195714
W        1.59323462       1.59323462      15.13512368
W        0.00000000       0.00000000      16.72824473
W        1.59323462       1.59323462      18.32140203
W        0.00000000       0.00000000      19.91456148
W        1.59323462       1.59323462      21.50772305
W        0.00000000       0.00000000      23.10092020
W        1.59323462       1.59323462      24.69409247
W       -0.00000000       0.00000000      28.44106834
W        1.59323462       1.59323462      30.03424060
W       -0.00000000       0.00000000      31.62743775
W        1.59323462       1.59323462      33.22059933
W        0.00000000      -0.00000000      34.81375877
W        1.59323462       1.59323462      36.40691608
W        0.00000000      -0.00000000      38.00003713
W        1.59323462       1.59323462      39.59320367
W       -0.00000000      -0.00000000      41.18642188
W        1.59323462       1.59323462      42.77963705
W        0.00000000      -0.00000000      44.37283533
W        1.59323462       1.59323462      45.96601721
W        0.00000000      -0.00000000      47.55915885
W        1.59323462       1.59323462      49.15226105
W        0.00000000       0.00000000      50.74541437
W        1.59323462       1.59323462      52.33858804
W        0.00000000       3.18646924       0.79657277
W        1.59323462       4.77970386       2.38974643
W        0.00000000       3.18646924       3.98289976
W        1.59323462       4.77970386       5.57600196
W       -0.00000000       3.18646924       7.16914360
W        1.59323462       4.77970386       8.76232548
W       -0.00000000       3.18646924      10.35552376
W        1.59323462       4.77970386      11.94873892
W       -0.00000000       3.18646924      13.54195714
W        1.59323462       4.77970386      15.13512368
W        0.00000000       3.18646924      16.72824473
W        1.59323462       4.77970386      18.32140203
W       -0.00000000       3.18646924      19.91456148
W        1.59323462       4.77970386      21.50772305
W        0.00000000       3.18646924      23.10092020
W        1.59323462       4.77970386      24.69409247
W        0.00000000       3.18646924      28.44106834
W        1.59323462       4.77970386      30.03424060
W       -0.00000000       3.18646924      31.62743775
W        1.59323462       4.77970386      33.22059933
W        0.00000000       3.18646924      34.81375877
W        1.59323462       4.77970386      36.40691608
W       -0.00000000       3.18646924      38.00003713
W        1.59323462       4.77970386      39.59320367
W        0.00000000       3.18646924      41.18642188
W        1.59323462       4.77970386      42.77963705
W       -0.00000000       3.18646924      44.37283533
W        1.59323462       4.77970386      45.96601721
W       -0.00000000       3.18646924      47.55915885
W        1.59323462       4.77970386      49.15226105
W        0.00000000       3.18646924      50.74541437
W        1.59323462       4.77970386      52.33858804
W       -0.00000000       6.37293849       0.79657277
W        1.59323462       7.96617311       2.38974643
W        0.00000000       6.37293849       3.98289976
W        1.59323462       7.96617311       5.57600196
W       -0.00000000       6.37293849       7.16914360
W        1.59323462       7.96617311       8.76232548
W        0.00000000       6.37293849      10.35552376
W        1.59323462       7.96617311      11.94873892
W       -0.00000000       6.37293849      13.54195714
W        1.59323462       7.96617311      15.13512368
W        0.00000000       6.37293849      16.72824473
W        1.59323462       7.96617311      18.32140203
W        0.00000000       6.37293849      19.91456148
W        1.59323462       7.96617311      21.50772305
W       -0.00000000       6.37293849      23.10092020
W        1.59323462       7.96617311      24.69409247
W       -0.00000000       6.37293849      28.44106834
W        1.59323462       7.96617311      30.03424060
W        0.00000000       6.37293849      31.62743775
W        1.59323462       7.96617311      33.22059933
W        0.00000000       6.37293849      34.81375877
W        1.59323462       7.96617311      36.40691608
W        0.00000000       6.37293849      38.00003713
W        1.59323462       7.96617311      39.59320367
W        0.00000000       6.37293849      41.18642188
W        1.59323462       7.96617311      42.77963705
W        0.00000000       6.37293849      44.37283533
W        1.59323462       7.96617311      45.96601721
W       -0.00000000       6.37293849      47.55915885
W        1.59323462       7.96617311      49.15226105
W        0.00000000       6.37293849      50.74541437
W        1.59323462       7.96617311      52.33858804
W        3.18646924       0.00000000       0.79657277
W        4.77970386       1.59323462       2.38974643
W        3.18646924      -0.00000000       3.98289976
W        4.77970386       1.59323462       5.57600196
W        3.18646924       0.00000000       7.16914360
W        4.77970386       1.59323462       8.76232548
W        3.18646924       0.00000000      10.35552376
W        4.77970386       1.59323462      11.94873892
W        3.18646924       0.00000000      13.54195714
W        4.77970386       1.59323462      15.13512368
W        3.18646924       0.00000000      16.72824473
W        4.77970386       1.59323462      18.32140203
W        3.18646924      -0.00000000      19.91456148
W        4.77970386       1.59323462      21.50772305
W        3.18646924       0.00000000      23.10092020
W        4.77970386       1.59323462      24.69409247
W        3.18646924       0.00000000      28.44106834
W        4.77970386       1.59323462      30.03424060
W        3.18646924      -0.00000000      31.62743775
W        4.77970386       1.59323462      33.22059933
W        3.18646924       0.00000000      34.81375877
W        4.77970386       1.59323462      36.40691608
W        3.18646924       0.00000000      38.00003713
W        4.77970386       1.59323462      39.59320367
W        3.18646924       0.00000000      41.18642188
W        4.77970386       1.59323462      42.77963705
W        3.18646924      -0.00000000      44.37283533
W        4.77970386       1.59323462      45.96601721
W        3.18646924       0.00000000      47.55915885
W        4.77970386       1.59323462      49.15226105
W        3.18646924       0.00000000      50.74541437
W        4.77970386       1.59323462      52.33858804
W        3.18646924       3.18646924       0.79657277
W        4.77970386       4.77970386       2.38974643
W        3.18646924       3.18646924       3.98289976
W        4.77970386       4.77970386       5.57600196
W        3.18646924       3.18646924       7.16914360
W        4.77970386       4.77970386       8.76232548
W        3.18646924       3.18646924      10.35552376
W        4.77970386       4.77970386      11.94873892
W        3.18646924       3.18646924      13.54195714
W        4.77970386       4.77970386      15.13512368
W        3.18646924       3.18646924      16.72824473
W        4.77970386       4.77970386      18.32140203
W        3.18646924       3.18646924      19.91456148
W        4.77970386       4.77970386      21.50772305
W        3.18646924       3.18646924      23.10092020
W        4.77970386       4.77970386      24.69409247
W        3.18646924       3.18646924      28.44106834
W        4.77970386       4.77970386      30.03424060
W        3.18646924       3.18646924      31.62743775
W        4.77970386       4.77970386      33.22059933
W        3.18646924       3.18646924      34.81375877
W        4.77970386       4.77970386      36.40691608
W        3.18646924       3.18646924      38.00003713
W        4.77970386       4.77970386      39.59320367
W        3.18646924       3.18646924      41.18642188
W        4.77970386       4.77970386      42.77963705
W        3.18646924       3.18646924      44.37283533
W        4.77970386       4.77970386      45.96601721
W        3.18646924       3.18646924      47.55915885
W        4.77970386       4.77970386      49.15226105
W        3.18646924       3.18646924      50.74541437
W        4.77970386       4.77970386      52.33858804
W        3.18646924       6.37293849       0.79657277
W        4.77970386       7.96617311       2.38974643
W        3.18646924       6.37293849       3.98289976
W        4.77970386       7.96617311       5.57600196
W        3.18646924       6.37293849       7.16914360
W        4.77970386       7.96617311       8.76232548
W        3.18646924       6.37293849      10.35552376
W        4.77970386       7.96617311      11.94873892
W        3.18646924       6.37293849      13.54195714
W        4.77970386       7.96617311      15.13512368
W        3.18646924       6.37293849      16.72824473
W        4.77970386       7.96617311      18.32140203
W        3.18646924       6.37293849      19.91456148
W        4.77970386       7.96617311      21.50772305
W        3.18646924       6.37293849      23.10092020
W        4.77970386       7.96617311      24.69409247
W        3.18646924       6.37293849      28.44106834
W        4.77970386       7.96617311      30.03424060
W        3.18646924       6.37293849      31.62743775
W        4.77970386       7.96617311      33.22059933
W        3.18646924       6.37293849      34.81375877
W        4.77970386       7.96617311      36.40691608
W        3.18646924       6.37293849      38.00003713
W        4.77970386       7.96617311      39.59320367
W        3.18646924       6.37293849      41.18642188
W        4.77970386       7.96617311      42.77963705
W        3.18646924       6.37293849      44.37283533
W        4.77970386       7.96617311      45.96601721
W        3.18646924       6.37293849      47.55915885
W        4.77970386       7.96617311      49.15226105
W        3.18646924       6.37293849      50.74541437
W        4.77970386       7.96617311      52.33858804
W        6.37293849       0.00000000       0.79657277
W        7.96617311       1.59323462       2.38974643
W        6.37293849       0.00000000       3.98289976
W        7.96617311       1.59323462       5.57600196
W        6.37293849       0.00000000       7.16914360
W        7.96617311       1.59323462       8.76232548
W        6.37293849      -0.00000000      10.35552376
W        7.96617311       1.59323462      11.94873892
W        6.37293849       0.00000000      13.54195714
W        7.96617311       1.59323462      15.13512368
W        6.37293849      -0.00000000      16.72824473
W        7.96617311       1.59323462      18.32140203
W        6.37293849       0.00000000      19.91456148
W        7.96617311       1.59323462      21.50772305
W        6.37293849       0.00000000      23.10092020
W        7.96617311       1.59323462      24.69409247
W        6.37293849       0.00000000      28.44106834
W        7.96617311       1.59323462      30.03424060
W        6.37293849       0.00000000      31.62743775
W        7.96617311       1.59323462      33.22059933
W        6.37293849      -0.00000000      34.81375877
W        7.96617311       1.59323462      36.40691608
W        6.37293849       0.00000000      38.00003713
W        7.96617311       1.59323462      39.59320367
W        6.37293849      -0.00000000      41.18642188
W        7.96617311       1.59323462      42.77963705
W        6.37293849       0.00000000      44.37283533
W        7.96617311       1.59323462      45.96601721
W        6.37293849       0.00000000      47.55915885
W        7.96617311       1.59323462      49.15226105
W        6.37293849      -0.00000000      50.74541437
W        7.96617311       1.59323462      52.33858804
W        6.37293849       3.18646924       0.79657277
W        7.96617311       4.77970386       2.38974643
W        6.37293849       3.18646924       3.98289976
W        7.96617311       4.77970386       5.57600196
W        6.37293849       3.18646924       7.16914360
W        7.96617311       4.77970386       8.76232548
W        6.37293849       3.18646924      10.35552376
W        7.96617311       4.77970386      11.94873892
W        6.37293849       3.18646924      13.54195714
W        7.96617311       4.77970386      15.13512368
W        6.37293849       3.18646924      16.72824473
W        7.96617311       4.77970386      18.32140203
W        6.37293849       3.18646924      19.91456148
W        7.96617311       4.77970386      21.50772305
W        6.37293849       3.18646924      23.10092020
W        7.96617311       4.77970386      24.69409247
W        6.37293849       3.18646924      28.44106834
W        7.96617311       4.77970386      30.03424060
W        6.37293849       3.18646924      31.62743775
W        7.96617311       4.77970386      33.22059933
W        6.37293849       3.18646924      34.81375877
W        7.96617311       4.77970386      36.40691608
W        6.37293849       3.18646924      38.00003713
W        7.96617311       4.77970386      39.59320367
W        6.37293849       3.18646924      41.18642188
W        7.96617311       4.77970386      42.77963705
W        6.37293849       3.18646924      44.37283533
W        7.96617311       4.77970386      45.96601721
W        6.37293849       3.18646924      47.55915885
W        7.96617311       4.77970386      49.15226105
W        6.37293849       3.18646924      50.74541437
W        7.96617311       4.77970386      52.33858804
W        6.37293849       6.37293849       0.79657277
W        7.96617311       7.96617311       2.38974643
W        6.37293849       6.37293849       3.98289976
W        7.96617311       7.96617311       5.57600196
W        6.37293849       6.37293849       7.16914360
W        7.96617311       7.96617311       8.76232548
W        6.37293849       6.37293849      10.35552376
W        7.96617311       7.96617311      11.94873892
W        6.37293849       6.37293849      13.54195714
W        7.96617311       7.96617311      15.13512368
W        6.37293849       6.37293849      16.72824473
W        7.96617311       7.96617311      18.32140203
W        6.37293849       6.37293849      19.91456148
W        7.96617311       7.96617311      21.50772305
W        6.37293849       6.37293849      23.10092020
W        7.96617311       7.96617311      24.69409247
W        6.37293849       6.37293849      28.44106834
W        7.96617311       7.96617311      30.03424060
W        6.37293849       6.37293849      31.62743775
W        7.96617311       7.96617311      33.22059933
W        6.37293849       6.37293849      34.81375877
W        7.96617311       7.96617311      36.40691608
W        6.37293849       6.37293849      38.00003713
W        7.96617311       7.96617311      39.59320367
W        6.37293849       6.37293849      41.18642188
W        7.96617311       7.96617311      42.77963705
W        6.37293849       6.37293849      44.37283533
W        7.96617311       7.96617311      45.96601721
W        6.37293849       6.37293849      47.55915885
W        7.96617311       7.96617311      49.15226105
W        6.37293849       6.37293849      50.74541437
W        7.96617311       7.96617311      52.33858804
288
Lattice="9.559407728649656 -9.087318898702386e-18 2.3918883122634095e-17 -9.087318898702381e-18 9.559407728649656 -2.3057458068536844e-17 1.2294658829237918e-16 -1.138024128057971e-16 53.237724910540905" Properties=species:S:1:pos:R:3 vacuum_gap_Ang=2.2564102564102564 frame_index=22 pbc="T T T"
W       -0.00000000       0.00000000       0.79657277
W        1.59323462       1.59323462       2.38974643
W       -0.00000000       0.00000000       3.98289976
W        1.59323462       1.59323462       5.57600196
W       -0.00000000       0.00000000       7.16914360
W        1.59323462       1.59323462       8.76232548
W        0.00000000      -0.00000000      10.35552376
W        1.59323462       1.59323462      11.94873892
W       -0.00000000       0.00000000      13.54195714
W        1.59323462       1.59323462      15.13512368
W        0.00000000       0.00000000      16.72824473
W        1.59323462       1.59323462      18.32140203
W        0.00000000       0.00000000      19.91456148
W        1.59323462       1.59323462      21.50772305
W        0.00000000       0.00000000      23.10092020
W        1.59323462       1.59323462      24.69409247
W       -0.00000000       0.00000000      28.54363244
W        1.59323462       1.59323462      30.13680471
W       -0.00000000       0.00000000      31.73000186
W        1.59323462       1.59323462      33.32316343
W        0.00000000      -0.00000000      34.91632288
W        1.59323462       1.59323462      36.50948018
W        0.00000000      -0.00000000      38.10260123
W        1.59323462       1.59323462      39.69576777
W       -0.00000000      -0.00000000      41.28898599
W        1.59323462       1.59323462      42.88220115
W        0.00000000      -0.00000000      44.47539943
W        1.59323462       1.59323462      46.06858131
W        0.00000000      -0.00000000      47.66172295
W        1.59323462       1.59323462      49.25482515
W        0.00000000       0.00000000      50.84797848
W        1.59323462       1.59323462      52.44115214
W        0.00000000       3.18646924       0.79657277
W        1.59323462       4.77970386       2.38974643
W        0.00000000       3.18646924       3.98289976
W        1.59323462       4.77970386       5.57600196
W       -0.00000000       3.18646924       7.16914360
W        1.59323462       4.77970386       8.76232548
W       -0.00000000       3.18646924      10.35552376
W        1.59323462       4.77970386      11.94873892
W       -0.00000000       3.18646924      13.54195714
W        1.59323462       4.77970386      15.13512368
W        0.00000000       3.18646924      16.72824473
W        1.59323462       4.77970386      18.32140203
W       -0.00000000       3.18646924      19.91456148
W        1.59323462       4.77970386      21.50772305
W        0.00000000       3.18646924      23.10092020
W        1.59323462       4.77970386      24.69409247
W        0.00000000       3.18646924      28.54363244
W        1.59323462       4.77970386      30.13680471
W       -0.00000000       3.18646924      31.73000186
W        1.59323462       4.77970386      33.32316343
W        0.00000000       3.18646924      34.91632288
W        1.59323462       4.77970386      36.50948018
W       -0.00000000       3.18646924      38.10260123
W        1.59323462       4.77970386      39.69576777
W        0.00000000       3.18646924      41.28898599
W        1.59323462       4.77970386      42.88220115
W       -0.00000000       3.18646924      44.47539943
W        1.59323462       4.77970386      46.06858131
W       -0.00000000       3.18646924      47.66172295
W        1.59323462       4.77970386      49.25482515
W        0.00000000       3.18646924      50.84797848
W        1.59323462       4.77970386      52.44115214
W       -0.00000000       6.37293849       0.79657277
W        1.59323462       7.96617311       2.38974643
W        0.00000000       6.37293849       3.98289976
W        1.59323462       7.96617311       5.57600196
W       -0.00000000       6.37293849       7.16914360
W        1.59323462       7.96617311       8.76232548
W        0.00000000       6.37293849      10.35552376
W        1.59323462       7.96617311      11.94873892
W       -0.00000000       6.37293849      13.54195714
W        1.59323462       7.96617311      15.13512368
W        0.00000000       6.37293849      16.72824473
W        1.59323462       7.96617311      18.32140203
W        0.00000000       6.37293849      19.91456148
W        1.59323462       7.96617311      21.50772305
W       -0.00000000       6.37293849      23.10092020
W        1.59323462       7.96617311      24.69409247
W       -0.00000000       6.37293849      28.54363244
W        1.59323462       7.96617311      30.13680471
W        0.00000000       6.37293849      31.73000186
W        1.59323462       7.96617311      33.32316343
W        0.00000000       6.37293849      34.91632288
W        1.59323462       7.96617311      36.50948018
W        0.00000000       6.37293849      38.10260123
W        1.59323462       7.96617311      39.69576777
W        0.00000000       6.37293849      41.28898599
W        1.59323462       7.96617311      42.88220115
W        0.00000000       6.37293849      44.47539943
W        1.59323462       7.96617311      46.06858131
W       -0.00000000       6.37293849      47.66172295
W        1.59323462       7.96617311      49.25482515
W        0.00000000       6.37293849      50.84797848
W        1.59323462       7.96617311      52.44115214
W        3.18646924       0.00000000       0.79657277
W        4.77970386       1.59323462       2.38974643
W        3.18646924      -0.00000000       3.98289976
W        4.77970386       1.59323462       5.57600196
W        3.18646924       0.00000000       7.16914360
W        4.77970386       1.59323462       8.76232548
W        3.18646924       0.00000000      10.35552376
W        4.77970386       1.59323462      11.94873892
W        3.18646924       0.00000000      13.54195714
W        4.77970386       1.59323462      15.13512368
W        3.18646924       0.00000000      16.72824473
W        4.77970386       1.59323462      18.32140203
W        3.18646924      -0.00000000      19.91456148
W        4.77970386       1.59323462      21.50772305
W        3.18646924       0.00000000      23.10092020
W        4.77970386       1.59323462      24.69409247
W        3.18646924       0.00000000      28.54363244
W        4.77970386       1.59323462      30.13680471
W        3.18646924      -0.00000000      31.73000186
W        4.77970386       1.59323462      33.32316343
W        3.18646924       0.00000000      34.91632288
W        4.77970386       1.59323462      36.50948018
W        3.18646924       0.00000000      38.10260123
W        4.77970386       1.59323462      39.69576777
W        3.18646924       0.00000000      41.28898599
W        4.77970386       1.59323462      42.88220115
W        3.18646924      -0.00000000      44.47539943
W        4.77970386       1.59323462      46.06858131
W        3.18646924       0.00000000      47.66172295
W        4.77970386       1.59323462      49.25482515
W        3.18646924       0.00000000      50.84797848
W        4.77970386       1.59323462      52.44115214
W        3.18646924       3.18646924       0.79657277
W        4.77970386       4.77970386       2.38974643
W        3.18646924       3.18646924       3.98289976
W        4.77970386       4.77970386       5.57600196
W        3.18646924       3.18646924       7.16914360
W        4.77970386       4.77970386       8.76232548
W        3.18646924       3.18646924      10.35552376
W        4.77970386       4.77970386      11.94873892
W        3.18646924       3.18646924      13.54195714
W        4.77970386       4.77970386      15.13512368
W        3.18646924       3.18646924      16.72824473
W        4.77970386       4.77970386      18.32140203
W        3.18646924       3.18646924      19.91456148
W        4.77970386       4.77970386      21.50772305
W        3.18646924       3.18646924      23.10092020
W        4.77970386       4.77970386      24.69409247
W        3.18646924       3.18646924      28.54363244
W        4.77970386       4.77970386      30.13680471
W        3.18646924       3.18646924      31.73000186
W        4.77970386       4.77970386      33.32316343
W        3.18646924       3.18646924      34.91632288
W        4.77970386       4.77970386      36.50948018
W        3.18646924       3.18646924      38.10260123
W        4.77970386       4.77970386      39.69576777
W        3.18646924       3.18646924      41.28898599
W        4.77970386       4.77970386      42.88220115
W        3.18646924       3.18646924      44.47539943
W        4.77970386       4.77970386      46.06858131
W        3.18646924       3.18646924      47.66172295
W        4.77970386       4.77970386      49.25482515
W        3.18646924       3.18646924      50.84797848
W        4.77970386       4.77970386      52.44115214
W        3.18646924       6.37293849       0.79657277
W        4.77970386       7.96617311       2.38974643
W        3.18646924       6.37293849       3.98289976
W        4.77970386       7.96617311       5.57600196
W        3.18646924       6.37293849       7.16914360
W        4.77970386       7.96617311       8.76232548
W        3.18646924       6.37293849      10.35552376
W        4.77970386       7.96617311      11.94873892
W        3.18646924       6.37293849      13.54195714
W        4.77970386       7.96617311      15.13512368
W        3.18646924       6.37293849      16.72824473
W        4.77970386       7.96617311      18.32140203
W        3.18646924       6.37293849      19.91456148
W        4.77970386       7.96617311      21.50772305
W        3.18646924       6.37293849      23.10092020
W        4.77970386       7.96617311      24.69409247
W        3.18646924       6.37293849      28.54363244
W        4.77970386       7.96617311      30.13680471
W        3.18646924       6.37293849      31.73000186
W        4.77970386       7.96617311      33.32316343
W        3.18646924       6.37293849      34.91632288
W        4.77970386       7.96617311      36.50948018
W        3.18646924       6.37293849      38.10260123
W        4.77970386       7.96617311      39.69576777
W        3.18646924       6.37293849      41.28898599
W        4.77970386       7.96617311      42.88220115
W        3.18646924       6.37293849      44.47539943
W        4.77970386       7.96617311      46.06858131
W        3.18646924       6.37293849      47.66172295
W        4.77970386       7.96617311      49.25482515
W        3.18646924       6.37293849      50.84797848
W        4.77970386       7.96617311      52.44115214
W        6.37293849       0.00000000       0.79657277
W        7.96617311       1.59323462       2.38974643
W        6.37293849       0.00000000       3.98289976
W        7.96617311       1.59323462       5.57600196
W        6.37293849       0.00000000       7.16914360
W        7.96617311       1.59323462       8.76232548
W        6.37293849      -0.00000000      10.35552376
W        7.96617311       1.59323462      11.94873892
W        6.37293849       0.00000000      13.54195714
W        7.96617311       1.59323462      15.13512368
W        6.37293849      -0.00000000      16.72824473
W        7.96617311       1.59323462      18.32140203
W        6.37293849       0.00000000      19.91456148
W        7.96617311       1.59323462      21.50772305
W        6.37293849       0.00000000      23.10092020
W        7.96617311       1.59323462      24.69409247
W        6.37293849       0.00000000      28.54363244
W        7.96617311       1.59323462      30.13680471
W        6.37293849       0.00000000      31.73000186
W        7.96617311       1.59323462      33.32316343
W        6.37293849      -0.00000000      34.91632288
W        7.96617311       1.59323462      36.50948018
W        6.37293849       0.00000000      38.10260123
W        7.96617311       1.59323462      39.69576777
W        6.37293849      -0.00000000      41.28898599
W        7.96617311       1.59323462      42.88220115
W        6.37293849       0.00000000      44.47539943
W        7.96617311       1.59323462      46.06858131
W        6.37293849       0.00000000      47.66172295
W        7.96617311       1.59323462      49.25482515
W        6.37293849      -0.00000000      50.84797848
W        7.96617311       1.59323462      52.44115214
W        6.37293849       3.18646924       0.79657277
W        7.96617311       4.77970386       2.38974643
W        6.37293849       3.18646924       3.98289976
W        7.96617311       4.77970386       5.57600196
W        6.37293849       3.18646924       7.16914360
W        7.96617311       4.77970386       8.76232548
W        6.37293849       3.18646924      10.35552376
W        7.96617311       4.77970386      11.94873892
W        6.37293849       3.18646924      13.54195714
W        7.96617311       4.77970386      15.13512368
W        6.37293849       3.18646924      16.72824473
W        7.96617311       4.77970386      18.32140203
W        6.37293849       3.18646924      19.91456148
W        7.96617311       4.77970386      21.50772305
W        6.37293849       3.18646924      23.10092020
W        7.96617311       4.77970386      24.69409247
W        6.37293849       3.18646924      28.54363244
W        7.96617311       4.77970386      30.13680471
W        6.37293849       3.18646924      31.73000186
W        7.96617311       4.77970386      33.32316343
W        6.37293849       3.18646924      34.91632288
W        7.96617311       4.77970386      36.50948018
W        6.37293849       3.18646924      38.10260123
W        7.96617311       4.77970386      39.69576777
W        6.37293849       3.18646924      41.28898599
W        7.96617311       4.77970386      42.88220115
W        6.37293849       3.18646924      44.47539943
W        7.96617311       4.77970386      46.06858131
W        6.37293849       3.18646924      47.66172295
W        7.96617311       4.77970386      49.25482515
W        6.37293849       3.18646924      50.84797848
W        7.96617311       4.77970386      52.44115214
W        6.37293849       6.37293849       0.79657277
W        7.96617311       7.96617311       2.38974643
W        6.37293849       6.37293849       3.98289976
W        7.96617311       7.96617311       5.57600196
W        6.37293849       6.37293849       7.16914360
W        7.96617311       7.96617311       8.76232548
W        6.37293849       6.37293849      10.35552376
W        7.96617311       7.96617311      11.94873892
W        6.37293849       6.37293849      13.54195714
W        7.96617311       7.96617311      15.13512368
W        6.37293849       6.37293849      16.72824473
W        7.96617311       7.96617311      18.32140203
W        6.37293849       6.37293849      19.91456148
W        7.96617311       7.96617311      21.50772305
W        6.37293849       6.37293849      23.10092020
W        7.96617311       7.96617311      24.69409247
W        6.37293849       6.37293849      28.54363244
W        7.96617311       7.96617311      30.13680471
W        6.37293849       6.37293849      31.73000186
W        7.96617311       7.96617311      33.32316343
W        6.37293849       6.37293849      34.91632288
W        7.96617311       7.96617311      36.50948018
W        6.37293849       6.37293849      38.10260123
W        7.96617311       7.96617311      39.69576777
W        6.37293849       6.37293849      41.28898599
W        7.96617311       7.96617311      42.88220115
W        6.37293849       6.37293849      44.47539943
W        7.96617311       7.96617311      46.06858131
W        6.37293849       6.37293849      47.66172295
W        7.96617311       7.96617311      49.25482515
W        6.37293849       6.37293849      50.84797848
W        7.96617311       7.96617311      52.44115214
288
Lattice="9.559407728649656 -9.087318898702386e-18 2.3918883122634095e-17 -9.087318898702381e-18 9.559407728649656 -2.3057458068536844e-17 1.2294658829237918e-16 -1.138024128057971e-16 53.34028901310501" Properties=species:S:1:pos:R:3 vacuum_gap_Ang=2.358974358974359 frame_index=23 pbc="T T T"
W       -0.00000000       0.00000000       0.79657277
W        1.59323462       1.59323462       2.38974643
W       -0.00000000       0.00000000       3.98289976
W        1.59323462       1.59323462       5.57600196
W       -0.00000000       0.00000000       7.16914360
W        1.59323462       1.59323462       8.76232548
W        0.00000000      -0.00000000      10.35552376
W        1.59323462       1.59323462      11.94873892
W       -0.00000000       0.00000000      13.54195714
W        1.59323462       1.59323462      15.13512368
W        0.00000000       0.00000000      16.72824473
W        1.59323462       1.59323462      18.32140203
W        0.00000000       0.00000000      19.91456148
W        1.59323462       1.59323462      21.50772305
W        0.00000000       0.00000000      23.10092020
W        1.59323462       1.59323462      24.69409247
W       -0.00000000       0.00000000      28.64619655
W        1.59323462       1.59323462      30.23936881
W       -0.00000000       0.00000000      31.83256596
W        1.59323462       1.59323462      33.42572753
W        0.00000000      -0.00000000      35.01888698
W        1.59323462       1.59323462      36.61204429
W        0.00000000      -0.00000000      38.20516533
W        1.59323462       1.59323462      39.79833188
W       -0.00000000      -0.00000000      41.39155009
W        1.59323462       1.59323462      42.98476526
W        0.00000000      -0.00000000      44.57796353
W        1.59323462       1.59323462      46.17114541
W        0.00000000      -0.00000000      47.76428705
W        1.59323462       1.59323462      49.35738925
W        0.00000000       0.00000000      50.95054258
W        1.59323462       1.59323462      52.54371624
W        0.00000000       3.18646924       0.79657277
W        1.59323462       4.77970386       2.38974643
W        0.00000000       3.18646924       3.98289976
W        1.59323462       4.77970386       5.57600196
W       -0.00000000       3.18646924       7.16914360
W        1.59323462       4.77970386       8.76232548
W       -0.00000000       3.18646924      10.35552376
W        1.59323462       4.77970386      11.94873892
W       -0.00000000       3.18646924      13.54195714
W        1.59323462       4.77970386      15.13512368
W        0.00000000       3.18646924      16.72824473
W        1.59323462       4.77970386      18.32140203
W       -0.00000000       3.18646924      19.91456148
W        1.59323462       4.77970386      21.50772305
W        0.00000000       3.18646924      23.10092020
W        1.59323462       4.77970386      24.69409247
W        0.00000000       3.18646924      28.64619655
W        1.59323462       4.77970386      30.23936881
W       -0.00000000       3.18646924      31.83256596
W        1.59323462       4.77970386      33.42572753
W        0.00000000       3.18646924      35.01888698
W        1.59323462       4.77970386      36.61204429
W       -0.00000000       3.18646924      38.20516533
W        1.59323462       4.77970386      39.79833188
W        0.00000000       3.18646924      41.39155009
W        1.59323462       4.77970386      42.98476526
W       -0.00000000       3.18646924      44.57796353
W        1.59323462       4.77970386      46.17114541
W       -0.00000000       3.18646924      47.76428705
W        1.59323462       4.77970386      49.35738925
W        0.00000000       3.18646924      50.95054258
W        1.59323462       4.77970386      52.54371624
W       -0.00000000       6.37293849       0.79657277
W        1.59323462       7.96617311       2.38974643
W        0.00000000       6.37293849       3.98289976
W        1.59323462       7.96617311       5.57600196
W       -0.00000000       6.37293849       7.16914360
W        1.59323462       7.96617311       8.76232548
W        0.00000000       6.37293849      10.35552376
W        1.59323462       7.96617311      11.94873892
W       -0.00000000       6.37293849      13.54195714
W        1.59323462       7.96617311      15.13512368
W        0.00000000       6.37293849      16.72824473
W        1.59323462       7.96617311      18.32140203
W        0.00000000       6.37293849      19.91456148
W        1.59323462       7.96617311      21.50772305
W       -0.00000000       6.37293849      23.10092020
W        1.59323462       7.96617311      24.69409247
W       -0.00000000       6.37293849      28.64619655
W        1.59323462       7.96617311      30.23936881
W        0.00000000       6.37293849      31.83256596
W        1.59323462       7.96617311      33.42572753
W        0.00000000       6.37293849      35.01888698
W        1.59323462       7.96617311      36.61204429
W        0.00000000       6.37293849      38.20516533
W        1.59323462       7.96617311      39.79833188
W        0.00000000       6.37293849      41.39155009
W        1.59323462       7.96617311      42.98476526
W        0.00000000       6.37293849      44.57796353
W        1.59323462       7.96617311      46.17114541
W       -0.00000000       6.37293849      47.76428705
W        1.59323462       7.96617311      49.35738925
W        0.00000000       6.37293849      50.95054258
W        1.59323462       7.96617311      52.54371624
W        3.18646924       0.00000000       0.79657277
W        4.77970386       1.59323462       2.38974643
W        3.18646924      -0.00000000       3.98289976
W        4.77970386       1.59323462       5.57600196
W        3.18646924       0.00000000       7.16914360
W        4.77970386       1.59323462       8.76232548
W        3.18646924       0.00000000      10.35552376
W        4.77970386       1.59323462      11.94873892
W        3.18646924       0.00000000      13.54195714
W        4.77970386       1.59323462      15.13512368
W        3.18646924       0.00000000      16.72824473
W        4.77970386       1.59323462      18.32140203
W        3.18646924      -0.00000000      19.91456148
W        4.77970386       1.59323462      21.50772305
W        3.18646924       0.00000000      23.10092020
W        4.77970386       1.59323462      24.69409247
W        3.18646924       0.00000000      28.64619655
W        4.77970386       1.59323462      30.23936881
W        3.18646924      -0.00000000      31.83256596
W        4.77970386       1.59323462      33.42572753
W        3.18646924       0.00000000      35.01888698
W        4.77970386       1.59323462      36.61204429
W        3.18646924       0.00000000      38.20516533
W        4.77970386       1.59323462      39.79833188
W        3.18646924       0.00000000      41.39155009
W        4.77970386       1.59323462      42.98476526
W        3.18646924      -0.00000000      44.57796353
W        4.77970386       1.59323462      46.17114541
W        3.18646924       0.00000000      47.76428705
W        4.77970386       1.59323462      49.35738925
W        3.18646924       0.00000000      50.95054258
W        4.77970386       1.59323462      52.54371624
W        3.18646924       3.18646924       0.79657277
W        4.77970386       4.77970386       2.38974643
W        3.18646924       3.18646924       3.98289976
W        4.77970386       4.77970386       5.57600196
W        3.18646924       3.18646924       7.16914360
W        4.77970386       4.77970386       8.76232548
W        3.18646924       3.18646924      10.35552376
W        4.77970386       4.77970386      11.94873892
W        3.18646924       3.18646924      13.54195714
W        4.77970386       4.77970386      15.13512368
W        3.18646924       3.18646924      16.72824473
W        4.77970386       4.77970386      18.32140203
W        3.18646924       3.18646924      19.91456148
W        4.77970386       4.77970386      21.50772305
W        3.18646924       3.18646924      23.10092020
W        4.77970386       4.77970386      24.69409247
W        3.18646924       3.18646924      28.64619655
W        4.77970386       4.77970386      30.23936881
W        3.18646924       3.18646924      31.83256596
W        4.77970386       4.77970386      33.42572753
W        3.18646924       3.18646924      35.01888698
W        4.77970386       4.77970386      36.61204429
W        3.18646924       3.18646924      38.20516533
W        4.77970386       4.77970386      39.79833188
W        3.18646924       3.18646924      41.39155009
W        4.77970386       4.77970386      42.98476526
W        3.18646924       3.18646924      44.57796353
W        4.77970386       4.77970386      46.17114541
W        3.18646924       3.18646924      47.76428705
W        4.77970386       4.77970386      49.35738925
W        3.18646924       3.18646924      50.95054258
W        4.77970386       4.77970386      52.54371624
W        3.18646924       6.37293849       0.79657277
W        4.77970386       7.96617311       2.38974643
W        3.18646924       6.37293849       3.98289976
W        4.77970386       7.96617311       5.57600196
W        3.18646924       6.37293849       7.16914360
W        4.77970386       7.96617311       8.76232548
W        3.18646924       6.37293849      10.35552376
W        4.77970386       7.96617311      11.94873892
W        3.18646924       6.37293849      13.54195714
W        4.77970386       7.96617311      15.13512368
W        3.18646924       6.37293849      16.72824473
W        4.77970386       7.96617311      18.32140203
W        3.18646924       6.37293849      19.91456148
W        4.77970386       7.96617311      21.50772305
W        3.18646924       6.37293849      23.10092020
W        4.77970386       7.96617311      24.69409247
W        3.18646924       6.37293849      28.64619655
W        4.77970386       7.96617311      30.23936881
W        3.18646924       6.37293849      31.83256596
W        4.77970386       7.96617311      33.42572753
W        3.18646924       6.37293849      35.01888698
W        4.77970386       7.96617311      36.61204429
W        3.18646924       6.37293849      38.20516533
W        4.77970386       7.96617311      39.79833188
W        3.18646924       6.37293849      41.39155009
W        4.77970386       7.96617311      42.98476526
W        3.18646924       6.37293849      44.57796353
W        4.77970386       7.96617311      46.17114541
W        3.18646924       6.37293849      47.76428705
W        4.77970386       7.96617311      49.35738925
W        3.18646924       6.37293849      50.95054258
W        4.77970386       7.96617311      52.54371624
W        6.37293849       0.00000000       0.79657277
W        7.96617311       1.59323462       2.38974643
W        6.37293849       0.00000000       3.98289976
W        7.96617311       1.59323462       5.57600196
W        6.37293849       0.00000000       7.16914360
W        7.96617311       1.59323462       8.76232548
W        6.37293849      -0.00000000      10.35552376
W        7.96617311       1.59323462      11.94873892
W        6.37293849       0.00000000      13.54195714
W        7.96617311       1.59323462      15.13512368
W        6.37293849      -0.00000000      16.72824473
W        7.96617311       1.59323462      18.32140203
W        6.37293849       0.00000000      19.91456148
W        7.96617311       1.59323462      21.50772305
W        6.37293849       0.00000000      23.10092020
W        7.96617311       1.59323462      24.69409247
W        6.37293849       0.00000000      28.64619655
W        7.96617311       1.59323462      30.23936881
W        6.37293849       0.00000000      31.83256596
W        7.96617311       1.59323462      33.42572753
W        6.37293849      -0.00000000      35.01888698
W        7.96617311       1.59323462      36.61204429
W        6.37293849       0.00000000      38.20516533
W        7.96617311       1.59323462      39.79833188
W        6.37293849      -0.00000000      41.39155009
W        7.96617311       1.59323462      42.98476526
W        6.37293849       0.00000000      44.57796353
W        7.96617311       1.59323462      46.17114541
W        6.37293849       0.00000000      47.76428705
W        7.96617311       1.59323462      49.35738925
W        6.37293849      -0.00000000      50.95054258
W        7.96617311       1.59323462      52.54371624
W        6.37293849       3.18646924       0.79657277
W        7.96617311       4.77970386       2.38974643
W        6.37293849       3.18646924       3.98289976
W        7.96617311       4.77970386       5.57600196
W        6.37293849       3.18646924       7.16914360
W        7.96617311       4.77970386       8.76232548
W        6.37293849       3.18646924      10.35552376
W        7.96617311       4.77970386      11.94873892
W        6.37293849       3.18646924      13.54195714
W        7.96617311       4.77970386      15.13512368
W        6.37293849       3.18646924      16.72824473
W        7.96617311       4.77970386      18.32140203
W        6.37293849       3.18646924      19.91456148
W        7.96617311       4.77970386      21.50772305
W        6.37293849       3.18646924      23.10092020
W        7.96617311       4.77970386      24.69409247
W        6.37293849       3.18646924      28.64619655
W        7.96617311       4.77970386      30.23936881
W        6.37293849       3.18646924      31.83256596
W        7.96617311       4.77970386      33.42572753
W        6.37293849       3.18646924      35.01888698
W        7.96617311       4.77970386      36.61204429
W        6.37293849       3.18646924      38.20516533
W        7.96617311       4.77970386      39.79833188
W        6.37293849       3.18646924      41.39155009
W        7.96617311       4.77970386      42.98476526
W        6.37293849       3.18646924      44.57796353
W        7.96617311       4.77970386      46.17114541
W        6.37293849       3.18646924      47.76428705
W        7.96617311       4.77970386      49.35738925
W        6.37293849       3.18646924      50.95054258
W        7.96617311       4.77970386      52.54371624
W        6.37293849       6.37293849       0.79657277
W        7.96617311       7.96617311       2.38974643
W        6.37293849       6.37293849       3.98289976
W        7.96617311       7.96617311       5.57600196
W        6.37293849       6.37293849       7.16914360
W        7.96617311       7.96617311       8.76232548
W        6.37293849       6.37293849      10.35552376
W        7.96617311       7.96617311      11.94873892
W        6.37293849       6.37293849      13.54195714
W        7.96617311       7.96617311      15.13512368
W        6.37293849       6.37293849      16.72824473
W        7.96617311       7.96617311      18.32140203
W        6.37293849       6.37293849      19.91456148
W        7.96617311       7.96617311      21.50772305
W        6.37293849       6.37293849      23.10092020
W        7.96617311       7.96617311      24.69409247
W        6.37293849       6.37293849      28.64619655
W        7.96617311       7.96617311      30.23936881
W        6.37293849       6.37293849      31.83256596
W        7.96617311       7.96617311      33.42572753
W        6.37293849       6.37293849      35.01888698
W        7.96617311       7.96617311      36.61204429
W        6.37293849       6.37293849      38.20516533
W        7.96617311       7.96617311      39.79833188
W        6.37293849       6.37293849      41.39155009
W        7.96617311       7.96617311      42.98476526
W        6.37293849       6.37293849      44.57796353
W        7.96617311       7.96617311      46.17114541
W        6.37293849       6.37293849      47.76428705
W        7.96617311       7.96617311      49.35738925
W        6.37293849       6.37293849      50.95054258
W        7.96617311       7.96617311      52.54371624
288
Lattice="9.559407728649656 -9.087318898702386e-18 2.3918883122634095e-17 -9.087318898702381e-18 9.559407728649656 -2.3057458068536844e-17 1.2294658829237918e-16 -1.138024128057971e-16 53.44285311566911" Properties=species:S:1:pos:R:3 vacuum_gap_Ang=2.4615384615384617 frame_index=24 pbc="T T T"
W       -0.00000000       0.00000000       0.79657277
W        1.59323462       1.59323462       2.38974643
W       -0.00000000       0.00000000       3.98289976
W        1.59323462       1.59323462       5.57600196
W       -0.00000000       0.00000000       7.16914360
W        1.59323462       1.59323462       8.76232548
W        0.00000000      -0.00000000      10.35552376
W        1.59323462       1.59323462      11.94873892
W       -0.00000000       0.00000000      13.54195714
W        1.59323462       1.59323462      15.13512368
W        0.00000000       0.00000000      16.72824473
W        1.59323462       1.59323462      18.32140203
W        0.00000000       0.00000000      19.91456148
W        1.59323462       1.59323462      21.50772305
W        0.00000000       0.00000000      23.10092020
W        1.59323462       1.59323462      24.69409247
W       -0.00000000       0.00000000      28.74876065
W        1.59323462       1.59323462      30.34193291
W       -0.00000000       0.00000000      31.93513006
W        1.59323462       1.59323462      33.52829163
W        0.00000000      -0.00000000      35.12145108
W        1.59323462       1.59323462      36.71460839
W        0.00000000      -0.00000000      38.30772944
W        1.59323462       1.59323462      39.90089598
W       -0.00000000      -0.00000000      41.49411419
W        1.59323462       1.59323462      43.08732936
W        0.00000000      -0.00000000      44.68052763
W        1.59323462       1.59323462      46.27370952
W        0.00000000      -0.00000000      47.86685116
W        1.59323462       1.59323462      49.45995336
W        0.00000000       0.00000000      51.05310668
W        1.59323462       1.59323462      52.64628035
W        0.00000000       3.18646924       0.79657277
W        1.59323462       4.77970386       2.38974643
W        0.00000000       3.18646924       3.98289976
W        1.59323462       4.77970386       5.57600196
W       -0.00000000       3.18646924       7.16914360
W        1.59323462       4.77970386       8.76232548
W       -0.00000000       3.18646924      10.35552376
W        1.59323462       4.77970386      11.94873892
W       -0.00000000       3.18646924      13.54195714
W        1.59323462       4.77970386      15.13512368
W        0.00000000       3.18646924      16.72824473
W        1.59323462       4.77970386      18.32140203
W       -0.00000000       3.18646924      19.91456148
W        1.59323462       4.77970386      21.50772305
W        0.00000000       3.18646924      23.10092020
W        1.59323462       4.77970386      24.69409247
W        0.00000000       3.18646924      28.74876065
W        1.59323462       4.77970386      30.34193291
W       -0.00000000       3.18646924      31.93513006
W        1.59323462       4.77970386      33.52829163
W        0.00000000       3.18646924      35.12145108
W        1.59323462       4.77970386      36.71460839
W       -0.00000000       3.18646924      38.30772944
W        1.59323462       4.77970386      39.90089598
W        0.00000000       3.18646924      41.49411419
W        1.59323462       4.77970386      43.08732936
W       -0.00000000       3.18646924      44.68052763
W        1.59323462       4.77970386      46.27370952
W       -0.00000000       3.18646924      47.86685116
W        1.59323462       4.77970386      49.45995336
W        0.00000000       3.18646924      51.05310668
W        1.59323462       4.77970386      52.64628035
W       -0.00000000       6.37293849       0.79657277
W        1.59323462       7.96617311       2.38974643
W        0.00000000       6.37293849       3.98289976
W        1.59323462       7.96617311       5.57600196
W       -0.00000000       6.37293849       7.16914360
W        1.59323462       7.96617311       8.76232548
W        0.00000000       6.37293849      10.35552376
W        1.59323462       7.96617311      11.94873892
W       -0.00000000       6.37293849      13.54195714
W        1.59323462       7.96617311      15.13512368
W        0.00000000       6.37293849      16.72824473
W        1.59323462       7.96617311      18.32140203
W        0.00000000       6.37293849      19.91456148
W        1.59323462       7.96617311      21.50772305
W       -0.00000000       6.37293849      23.10092020
W        1.59323462       7.96617311      24.69409247
W       -0.00000000       6.37293849      28.74876065
W        1.59323462       7.96617311      30.34193291
W        0.00000000       6.37293849      31.93513006
W        1.59323462       7.96617311      33.52829163
W        0.00000000       6.37293849      35.12145108
W        1.59323462       7.96617311      36.71460839
W        0.00000000       6.37293849      38.30772944
W        1.59323462       7.96617311      39.90089598
W        0.00000000       6.37293849      41.49411419
W        1.59323462       7.96617311      43.08732936
W        0.00000000       6.37293849      44.68052763
W        1.59323462       7.96617311      46.27370952
W       -0.00000000       6.37293849      47.86685116
W        1.59323462       7.96617311      49.45995336
W        0.00000000       6.37293849      51.05310668
W        1.59323462       7.96617311      52.64628035
W        3.18646924       0.00000000       0.79657277
W        4.77970386       1.59323462       2.38974643
W        3.18646924      -0.00000000       3.98289976
W        4.77970386       1.59323462       5.57600196
W        3.18646924       0.00000000       7.16914360
W        4.77970386       1.59323462       8.76232548
W        3.18646924       0.00000000      10.35552376
W        4.77970386       1.59323462      11.94873892
W        3.18646924       0.00000000      13.54195714
W        4.77970386       1.59323462      15.13512368
W        3.18646924       0.00000000      16.72824473
W        4.77970386       1.59323462      18.32140203
W        3.18646924      -0.00000000      19.91456148
W        4.77970386       1.59323462      21.50772305
W        3.18646924       0.00000000      23.10092020
W        4.77970386       1.59323462      24.69409247
W        3.18646924       0.00000000      28.74876065
W        4.77970386       1.59323462      30.34193291
W        3.18646924      -0.00000000      31.93513006
W        4.77970386       1.59323462      33.52829163
W        3.18646924       0.00000000      35.12145108
W        4.77970386       1.59323462      36.71460839
W        3.18646924       0.00000000      38.30772944
W        4.77970386       1.59323462      39.90089598
W        3.18646924       0.00000000      41.49411419
W        4.77970386       1.59323462      43.08732936
W        3.18646924      -0.00000000      44.68052763
W        4.77970386       1.59323462      46.27370952
W        3.18646924       0.00000000      47.86685116
W        4.77970386       1.59323462      49.45995336
W        3.18646924       0.00000000      51.05310668
W        4.77970386       1.59323462      52.64628035
W        3.18646924       3.18646924       0.79657277
W        4.77970386       4.77970386       2.38974643
W        3.18646924       3.18646924       3.98289976
W        4.77970386       4.77970386       5.57600196
W        3.18646924       3.18646924       7.16914360
W        4.77970386       4.77970386       8.76232548
W        3.18646924       3.18646924      10.35552376
W        4.77970386       4.77970386      11.94873892
W        3.18646924       3.18646924      13.54195714
W        4.77970386       4.77970386      15.13512368
W        3.18646924       3.18646924      16.72824473
W        4.77970386       4.77970386      18.32140203
W        3.18646924       3.18646924      19.91456148
W        4.77970386       4.77970386      21.50772305
W        3.18646924       3.18646924      23.10092020
W        4.77970386       4.77970386      24.69409247
W        3.18646924       3.18646924      28.74876065
W        4.77970386       4.77970386      30.34193291
W        3.18646924       3.18646924      31.93513006
W        4.77970386       4.77970386      33.52829163
W        3.18646924       3.18646924      35.12145108
W        4.77970386       4.77970386      36.71460839
W        3.18646924       3.18646924      38.30772944
W        4.77970386       4.77970386      39.90089598
W        3.18646924       3.18646924      41.49411419
W        4.77970386       4.77970386      43.08732936
W        3.18646924       3.18646924      44.68052763
W        4.77970386       4.77970386      46.27370952
W        3.18646924       3.18646924      47.86685116
W        4.77970386       4.77970386      49.45995336
W        3.18646924       3.18646924      51.05310668
W        4.77970386       4.77970386      52.64628035
W        3.18646924       6.37293849       0.79657277
W        4.77970386       7.96617311       2.38974643
W        3.18646924       6.37293849       3.98289976
W        4.77970386       7.96617311       5.57600196
W        3.18646924       6.37293849       7.16914360
W        4.77970386       7.96617311       8.76232548
W        3.18646924       6.37293849      10.35552376
W        4.77970386       7.96617311      11.94873892
W        3.18646924       6.37293849      13.54195714
W        4.77970386       7.96617311      15.13512368
W        3.18646924       6.37293849      16.72824473
W        4.77970386       7.96617311      18.32140203
W        3.18646924       6.37293849      19.91456148
W        4.77970386       7.96617311      21.50772305
W        3.18646924       6.37293849      23.10092020
W        4.77970386       7.96617311      24.69409247
W        3.18646924       6.37293849      28.74876065
W        4.77970386       7.96617311      30.34193291
W        3.18646924       6.37293849      31.93513006
W        4.77970386       7.96617311      33.52829163
W        3.18646924       6.37293849      35.12145108
W        4.77970386       7.96617311      36.71460839
W        3.18646924       6.37293849      38.30772944
W        4.77970386       7.96617311      39.90089598
W        3.18646924       6.37293849      41.49411419
W        4.77970386       7.96617311      43.08732936
W        3.18646924       6.37293849      44.68052763
W        4.77970386       7.96617311      46.27370952
W        3.18646924       6.37293849      47.86685116
W        4.77970386       7.96617311      49.45995336
W        3.18646924       6.37293849      51.05310668
W        4.77970386       7.96617311      52.64628035
W        6.37293849       0.00000000       0.79657277
W        7.96617311       1.59323462       2.38974643
W        6.37293849       0.00000000       3.98289976
W        7.96617311       1.59323462       5.57600196
W        6.37293849       0.00000000       7.16914360
W        7.96617311       1.59323462       8.76232548
W        6.37293849      -0.00000000      10.35552376
W        7.96617311       1.59323462      11.94873892
W        6.37293849       0.00000000      13.54195714
W        7.96617311       1.59323462      15.13512368
W        6.37293849      -0.00000000      16.72824473
W        7.96617311       1.59323462      18.32140203
W        6.37293849       0.00000000      19.91456148
W        7.96617311       1.59323462      21.50772305
W        6.37293849       0.00000000      23.10092020
W        7.96617311       1.59323462      24.69409247
W        6.37293849       0.00000000      28.74876065
W        7.96617311       1.59323462      30.34193291
W        6.37293849       0.00000000      31.93513006
W        7.96617311       1.59323462      33.52829163
W        6.37293849      -0.00000000      35.12145108
W        7.96617311       1.59323462      36.71460839
W        6.37293849       0.00000000      38.30772944
W        7.96617311       1.59323462      39.90089598
W        6.37293849      -0.00000000      41.49411419
W        7.96617311       1.59323462      43.08732936
W        6.37293849       0.00000000      44.68052763
W        7.96617311       1.59323462      46.27370952
W        6.37293849       0.00000000      47.86685116
W        7.96617311       1.59323462      49.45995336
W        6.37293849      -0.00000000      51.05310668
W        7.96617311       1.59323462      52.64628035
W        6.37293849       3.18646924       0.79657277
W        7.96617311       4.77970386       2.38974643
W        6.37293849       3.18646924       3.98289976
W        7.96617311       4.77970386       5.57600196
W        6.37293849       3.18646924       7.16914360
W        7.96617311       4.77970386       8.76232548
W        6.37293849       3.18646924      10.35552376
W        7.96617311       4.77970386      11.94873892
W        6.37293849       3.18646924      13.54195714
W        7.96617311       4.77970386      15.13512368
W        6.37293849       3.18646924      16.72824473
W        7.96617311       4.77970386      18.32140203
W        6.37293849       3.18646924      19.91456148
W        7.96617311       4.77970386      21.50772305
W        6.37293849       3.18646924      23.10092020
W        7.96617311       4.77970386      24.69409247
W        6.37293849       3.18646924      28.74876065
W        7.96617311       4.77970386      30.34193291
W        6.37293849       3.18646924      31.93513006
W        7.96617311       4.77970386      33.52829163
W        6.37293849       3.18646924      35.12145108
W        7.96617311       4.77970386      36.71460839
W        6.37293849       3.18646924      38.30772944
W        7.96617311       4.77970386      39.90089598
W        6.37293849       3.18646924      41.49411419
W        7.96617311       4.77970386      43.08732936
W        6.37293849       3.18646924      44.68052763
W        7.96617311       4.77970386      46.27370952
W        6.37293849       3.18646924      47.86685116
W        7.96617311       4.77970386      49.45995336
W        6.37293849       3.18646924      51.05310668
W        7.96617311       4.77970386      52.64628035
W        6.37293849       6.37293849       0.79657277
W        7.96617311       7.96617311       2.38974643
W        6.37293849       6.37293849       3.98289976
W        7.96617311       7.96617311       5.57600196
W        6.37293849       6.37293849       7.16914360
W        7.96617311       7.96617311       8.76232548
W        6.37293849       6.37293849      10.35552376
W        7.96617311       7.96617311      11.94873892
W        6.37293849       6.37293849      13.54195714
W        7.96617311       7.96617311      15.13512368
W        6.37293849       6.37293849      16.72824473
W        7.96617311       7.96617311      18.32140203
W        6.37293849       6.37293849      19.91456148
W        7.96617311       7.96617311      21.50772305
W        6.37293849       6.37293849      23.10092020
W        7.96617311       7.96617311      24.69409247
W        6.37293849       6.37293849      28.74876065
W        7.96617311       7.96617311      30.34193291
W        6.37293849       6.37293849      31.93513006
W        7.96617311       7.96617311      33.52829163
W        6.37293849       6.37293849      35.12145108
W        7.96617311       7.96617311      36.71460839
W        6.37293849       6.37293849      38.30772944
W        7.96617311       7.96617311      39.90089598
W        6.37293849       6.37293849      41.49411419
W        7.96617311       7.96617311      43.08732936
W        6.37293849       6.37293849      44.68052763
W        7.96617311       7.96617311      46.27370952
W        6.37293849       6.37293849      47.86685116
W        7.96617311       7.96617311      49.45995336
W        6.37293849       6.37293849      51.05310668
W        7.96617311       7.96617311      52.64628035
288
Lattice="9.559407728649656 -9.087318898702386e-18 2.3918883122634095e-17 -9.087318898702381e-18 9.559407728649656 -2.3057458068536844e-17 1.2294658829237918e-16 -1.138024128057971e-16 53.54541721823321" Properties=species:S:1:pos:R:3 vacuum_gap_Ang=2.564102564102564 frame_index=25 pbc="T T T"
W       -0.00000000       0.00000000       0.79657277
W        1.59323462       1.59323462       2.38974643
W       -0.00000000       0.00000000       3.98289976
W        1.59323462       1.59323462       5.57600196
W       -0.00000000       0.00000000       7.16914360
W        1.59323462       1.59323462       8.76232548
W        0.00000000      -0.00000000      10.35552376
W        1.59323462       1.59323462      11.94873892
W       -0.00000000       0.00000000      13.54195714
W        1.59323462       1.59323462      15.13512368
W        0.00000000       0.00000000      16.72824473
W        1.59323462       1.59323462      18.32140203
W        0.00000000       0.00000000      19.91456148
W        1.59323462       1.59323462      21.50772305
W        0.00000000       0.00000000      23.10092020
W        1.59323462       1.59323462      24.69409247
W       -0.00000000       0.00000000      28.85132475
W        1.59323462       1.59323462      30.44449701
W       -0.00000000       0.00000000      32.03769416
W        1.59323462       1.59323462      33.63085574
W        0.00000000      -0.00000000      35.22401518
W        1.59323462       1.59323462      36.81717249
W        0.00000000      -0.00000000      38.41029354
W        1.59323462       1.59323462      40.00346008
W       -0.00000000      -0.00000000      41.59667829
W        1.59323462       1.59323462      43.18989346
W        0.00000000      -0.00000000      44.78309174
W        1.59323462       1.59323462      46.37627362
W        0.00000000      -0.00000000      47.96941526
W        1.59323462       1.59323462      49.56251746
W        0.00000000       0.00000000      51.15567078
W        1.59323462       1.59323462      52.74884445
W        0.00000000       3.18646924       0.79657277
W        1.59323462       4.77970386       2.38974643
W        0.00000000       3.18646924       3.98289976
W        1.59323462       4.77970386       5.57600196
W       -0.00000000       3.18646924       7.16914360
W        1.59323462       4.77970386       8.76232548
W       -0.00000000       3.18646924      10.35552376
W        1.59323462       4.77970386      11.94873892
W       -0.00000000       3.18646924      13.54195714
W        1.59323462       4.77970386      15.13512368
W        0.00000000       3.18646924      16.72824473
W        1.59323462       4.77970386      18.32140203
W       -0.00000000       3.18646924      19.91456148
W        1.59323462       4.77970386      21.50772305
W        0.00000000       3.18646924      23.10092020
W        1.59323462       4.77970386      24.69409247
W        0.00000000       3.18646924      28.85132475
W        1.59323462       4.77970386      30.44449701
W       -0.00000000       3.18646924      32.03769416
W        1.59323462       4.77970386      33.63085574
W        0.00000000       3.18646924      35.22401518
W        1.59323462       4.77970386      36.81717249
W       -0.00000000       3.18646924      38.41029354
W        1.59323462       4.77970386      40.00346008
W        0.00000000       3.18646924      41.59667829
W        1.59323462       4.77970386      43.18989346
W       -0.00000000       3.18646924      44.78309174
W        1.59323462       4.77970386      46.37627362
W       -0.00000000       3.18646924      47.96941526
W        1.59323462       4.77970386      49.56251746
W        0.00000000       3.18646924      51.15567078
W        1.59323462       4.77970386      52.74884445
W       -0.00000000       6.37293849       0.79657277
W        1.59323462       7.96617311       2.38974643
W        0.00000000       6.37293849       3.98289976
W        1.59323462       7.96617311       5.57600196
W       -0.00000000       6.37293849       7.16914360
W        1.59323462       7.96617311       8.76232548
W        0.00000000       6.37293849      10.35552376
W        1.59323462       7.96617311      11.94873892
W       -0.00000000       6.37293849      13.54195714
W        1.59323462       7.96617311      15.13512368
W        0.00000000       6.37293849      16.72824473
W        1.59323462       7.96617311      18.32140203
W        0.00000000       6.37293849      19.91456148
W        1.59323462       7.96617311      21.50772305
W       -0.00000000       6.37293849      23.10092020
W        1.59323462       7.96617311      24.69409247
W       -0.00000000       6.37293849      28.85132475
W        1.59323462       7.96617311      30.44449701
W        0.00000000       6.37293849      32.03769416
W        1.59323462       7.96617311      33.63085574
W        0.00000000       6.37293849      35.22401518
W        1.59323462       7.96617311      36.81717249
W        0.00000000       6.37293849      38.41029354
W        1.59323462       7.96617311      40.00346008
W        0.00000000       6.37293849      41.59667829
W        1.59323462       7.96617311      43.18989346
W        0.00000000       6.37293849      44.78309174
W        1.59323462       7.96617311      46.37627362
W       -0.00000000       6.37293849      47.96941526
W        1.59323462       7.96617311      49.56251746
W        0.00000000       6.37293849      51.15567078
W        1.59323462       7.96617311      52.74884445
W        3.18646924       0.00000000       0.79657277
W        4.77970386       1.59323462       2.38974643
W        3.18646924      -0.00000000       3.98289976
W        4.77970386       1.59323462       5.57600196
W        3.18646924       0.00000000       7.16914360
W        4.77970386       1.59323462       8.76232548
W        3.18646924       0.00000000      10.35552376
W        4.77970386       1.59323462      11.94873892
W        3.18646924       0.00000000      13.54195714
W        4.77970386       1.59323462      15.13512368
W        3.18646924       0.00000000      16.72824473
W        4.77970386       1.59323462      18.32140203
W        3.18646924      -0.00000000      19.91456148
W        4.77970386       1.59323462      21.50772305
W        3.18646924       0.00000000      23.10092020
W        4.77970386       1.59323462      24.69409247
W        3.18646924       0.00000000      28.85132475
W        4.77970386       1.59323462      30.44449701
W        3.18646924      -0.00000000      32.03769416
W        4.77970386       1.59323462      33.63085574
W        3.18646924       0.00000000      35.22401518
W        4.77970386       1.59323462      36.81717249
W        3.18646924       0.00000000      38.41029354
W        4.77970386       1.59323462      40.00346008
W        3.18646924       0.00000000      41.59667829
W        4.77970386       1.59323462      43.18989346
W        3.18646924      -0.00000000      44.78309174
W        4.77970386       1.59323462      46.37627362
W        3.18646924       0.00000000      47.96941526
W        4.77970386       1.59323462      49.56251746
W        3.18646924       0.00000000      51.15567078
W        4.77970386       1.59323462      52.74884445
W        3.18646924       3.18646924       0.79657277
W        4.77970386       4.77970386       2.38974643
W        3.18646924       3.18646924       3.98289976
W        4.77970386       4.77970386       5.57600196
W        3.18646924       3.18646924       7.16914360
W        4.77970386       4.77970386       8.76232548
W        3.18646924       3.18646924      10.35552376
W        4.77970386       4.77970386      11.94873892
W        3.18646924       3.18646924      13.54195714
W        4.77970386       4.77970386      15.13512368
W        3.18646924       3.18646924      16.72824473
W        4.77970386       4.77970386      18.32140203
W        3.18646924       3.18646924      19.91456148
W        4.77970386       4.77970386      21.50772305
W        3.18646924       3.18646924      23.10092020
W        4.77970386       4.77970386      24.69409247
W        3.18646924       3.18646924      28.85132475
W        4.77970386       4.77970386      30.44449701
W        3.18646924       3.18646924      32.03769416
W        4.77970386       4.77970386      33.63085574
W        3.18646924       3.18646924      35.22401518
W        4.77970386       4.77970386      36.81717249
W        3.18646924       3.18646924      38.41029354
W        4.77970386       4.77970386      40.00346008
W        3.18646924       3.18646924      41.59667829
W        4.77970386       4.77970386      43.18989346
W        3.18646924       3.18646924      44.78309174
W        4.77970386       4.77970386      46.37627362
W        3.18646924       3.18646924      47.96941526
W        4.77970386       4.77970386      49.56251746
W        3.18646924       3.18646924      51.15567078
W        4.77970386       4.77970386      52.74884445
W        3.18646924       6.37293849       0.79657277
W        4.77970386       7.96617311       2.38974643
W        3.18646924       6.37293849       3.98289976
W        4.77970386       7.96617311       5.57600196
W        3.18646924       6.37293849       7.16914360
W        4.77970386       7.96617311       8.76232548
W        3.18646924       6.37293849      10.35552376
W        4.77970386       7.96617311      11.94873892
W        3.18646924       6.37293849      13.54195714
W        4.77970386       7.96617311      15.13512368
W        3.18646924       6.37293849      16.72824473
W        4.77970386       7.96617311      18.32140203
W        3.18646924       6.37293849      19.91456148
W        4.77970386       7.96617311      21.50772305
W        3.18646924       6.37293849      23.10092020
W        4.77970386       7.96617311      24.69409247
W        3.18646924       6.37293849      28.85132475
W        4.77970386       7.96617311      30.44449701
W        3.18646924       6.37293849      32.03769416
W        4.77970386       7.96617311      33.63085574
W        3.18646924       6.37293849      35.22401518
W        4.77970386       7.96617311      36.81717249
W        3.18646924       6.37293849      38.41029354
W        4.77970386       7.96617311      40.00346008
W        3.18646924       6.37293849      41.59667829
W        4.77970386       7.96617311      43.18989346
W        3.18646924       6.37293849      44.78309174
W        4.77970386       7.96617311      46.37627362
W        3.18646924       6.37293849      47.96941526
W        4.77970386       7.96617311      49.56251746
W        3.18646924       6.37293849      51.15567078
W        4.77970386       7.96617311      52.74884445
W        6.37293849       0.00000000       0.79657277
W        7.96617311       1.59323462       2.38974643
W        6.37293849       0.00000000       3.98289976
W        7.96617311       1.59323462       5.57600196
W        6.37293849       0.00000000       7.16914360
W        7.96617311       1.59323462       8.76232548
W        6.37293849      -0.00000000      10.35552376
W        7.96617311       1.59323462      11.94873892
W        6.37293849       0.00000000      13.54195714
W        7.96617311       1.59323462      15.13512368
W        6.37293849      -0.00000000      16.72824473
W        7.96617311       1.59323462      18.32140203
W        6.37293849       0.00000000      19.91456148
W        7.96617311       1.59323462      21.50772305
W        6.37293849       0.00000000      23.10092020
W        7.96617311       1.59323462      24.69409247
W        6.37293849       0.00000000      28.85132475
W        7.96617311       1.59323462      30.44449701
W        6.37293849       0.00000000      32.03769416
W        7.96617311       1.59323462      33.63085574
W        6.37293849      -0.00000000      35.22401518
W        7.96617311       1.59323462      36.81717249
W        6.37293849       0.00000000      38.41029354
W        7.96617311       1.59323462      40.00346008
W        6.37293849      -0.00000000      41.59667829
W        7.96617311       1.59323462      43.18989346
W        6.37293849       0.00000000      44.78309174
W        7.96617311       1.59323462      46.37627362
W        6.37293849       0.00000000      47.96941526
W        7.96617311       1.59323462      49.56251746
W        6.37293849      -0.00000000      51.15567078
W        7.96617311       1.59323462      52.74884445
W        6.37293849       3.18646924       0.79657277
W        7.96617311       4.77970386       2.38974643
W        6.37293849       3.18646924       3.98289976
W        7.96617311       4.77970386       5.57600196
W        6.37293849       3.18646924       7.16914360
W        7.96617311       4.77970386       8.76232548
W        6.37293849       3.18646924      10.35552376
W        7.96617311       4.77970386      11.94873892
W        6.37293849       3.18646924      13.54195714
W        7.96617311       4.77970386      15.13512368
W        6.37293849       3.18646924      16.72824473
W        7.96617311       4.77970386      18.32140203
W        6.37293849       3.18646924      19.91456148
W        7.96617311       4.77970386      21.50772305
W        6.37293849       3.18646924      23.10092020
W        7.96617311       4.77970386      24.69409247
W        6.37293849       3.18646924      28.85132475
W        7.96617311       4.77970386      30.44449701
W        6.37293849       3.18646924      32.03769416
W        7.96617311       4.77970386      33.63085574
W        6.37293849       3.18646924      35.22401518
W        7.96617311       4.77970386      36.81717249
W        6.37293849       3.18646924      38.41029354
W        7.96617311       4.77970386      40.00346008
W        6.37293849       3.18646924      41.59667829
W        7.96617311       4.77970386      43.18989346
W        6.37293849       3.18646924      44.78309174
W        7.96617311       4.77970386      46.37627362
W        6.37293849       3.18646924      47.96941526
W        7.96617311       4.77970386      49.56251746
W        6.37293849       3.18646924      51.15567078
W        7.96617311       4.77970386      52.74884445
W        6.37293849       6.37293849       0.79657277
W        7.96617311       7.96617311       2.38974643
W        6.37293849       6.37293849       3.98289976
W        7.96617311       7.96617311       5.57600196
W        6.37293849       6.37293849       7.16914360
W        7.96617311       7.96617311       8.76232548
W        6.37293849       6.37293849      10.35552376
W        7.96617311       7.96617311      11.94873892
W        6.37293849       6.37293849      13.54195714
W        7.96617311       7.96617311      15.13512368
W        6.37293849       6.37293849      16.72824473
W        7.96617311       7.96617311      18.32140203
W        6.37293849       6.37293849      19.91456148
W        7.96617311       7.96617311      21.50772305
W        6.37293849       6.37293849      23.10092020
W        7.96617311       7.96617311      24.69409247
W        6.37293849       6.37293849      28.85132475
W        7.96617311       7.96617311      30.44449701
W        6.37293849       6.37293849      32.03769416
W        7.96617311       7.96617311      33.63085574
W        6.37293849       6.37293849      35.22401518
W        7.96617311       7.96617311      36.81717249
W        6.37293849       6.37293849      38.41029354
W        7.96617311       7.96617311      40.00346008
W        6.37293849       6.37293849      41.59667829
W        7.96617311       7.96617311      43.18989346
W        6.37293849       6.37293849      44.78309174
W        7.96617311       7.96617311      46.37627362
W        6.37293849       6.37293849      47.96941526
W        7.96617311       7.96617311      49.56251746
W        6.37293849       6.37293849      51.15567078
W        7.96617311       7.96617311      52.74884445
288
Lattice="9.559407728649656 -9.087318898702386e-18 2.3918883122634095e-17 -9.087318898702381e-18 9.559407728649656 -2.3057458068536844e-17 1.2294658829237918e-16 -1.138024128057971e-16 53.647981320797314" Properties=species:S:1:pos:R:3 vacuum_gap_Ang=2.6666666666666665 frame_index=26 pbc="T T T"
W       -0.00000000       0.00000000       0.79657277
W        1.59323462       1.59323462       2.38974643
W       -0.00000000       0.00000000       3.98289976
W        1.59323462       1.59323462       5.57600196
W       -0.00000000       0.00000000       7.16914360
W        1.59323462       1.59323462       8.76232548
W        0.00000000      -0.00000000      10.35552376
W        1.59323462       1.59323462      11.94873892
W       -0.00000000       0.00000000      13.54195714
W        1.59323462       1.59323462      15.13512368
W        0.00000000       0.00000000      16.72824473
W        1.59323462       1.59323462      18.32140203
W        0.00000000       0.00000000      19.91456148
W        1.59323462       1.59323462      21.50772305
W        0.00000000       0.00000000      23.10092020
W        1.59323462       1.59323462      24.69409247
W       -0.00000000       0.00000000      28.95388886
W        1.59323462       1.59323462      30.54706112
W       -0.00000000       0.00000000      32.14025827
W        1.59323462       1.59323462      33.73341984
W        0.00000000      -0.00000000      35.32657929
W        1.59323462       1.59323462      36.91973659
W        0.00000000      -0.00000000      38.51285764
W        1.59323462       1.59323462      40.10602418
W       -0.00000000      -0.00000000      41.69924240
W        1.59323462       1.59323462      43.29245756
W        0.00000000      -0.00000000      44.88565584
W        1.59323462       1.59323462      46.47883772
W        0.00000000      -0.00000000      48.07197936
W        1.59323462       1.59323462      49.66508156
W        0.00000000       0.00000000      51.25823489
W        1.59323462       1.59323462      52.85140855
W        0.00000000       3.18646924       0.79657277
W        1.59323462       4.77970386       2.38974643
W        0.00000000       3.18646924       3.98289976
W        1.59323462       4.77970386       5.57600196
W       -0.00000000       3.18646924       7.16914360
W        1.59323462       4.77970386       8.76232548
W       -0.00000000       3.18646924      10.35552376
W        1.59323462       4.77970386      11.94873892
W       -0.00000000       3.18646924      13.54195714
W        1.59323462       4.77970386      15.13512368
W        0.00000000       3.18646924      16.72824473
W        1.59323462       4.77970386      18.32140203
W       -0.00000000       3.18646924      19.91456148
W        1.59323462       4.77970386      21.50772305
W        0.00000000       3.18646924      23.10092020
W        1.59323462       4.77970386      24.69409247
W        0.00000000       3.18646924      28.95388886
W        1.59323462       4.77970386      30.54706112
W       -0.00000000       3.18646924      32.14025827
W        1.59323462       4.77970386      33.73341984
W        0.00000000       3.18646924      35.32657929
W        1.59323462       4.77970386      36.91973659
W       -0.00000000       3.18646924      38.51285764
W        1.59323462       4.77970386      40.10602418
W        0.00000000       3.18646924      41.69924240
W        1.59323462       4.77970386      43.29245756
W       -0.00000000       3.18646924      44.88565584
W        1.59323462       4.77970386      46.47883772
W       -0.00000000       3.18646924      48.07197936
W        1.59323462       4.77970386      49.66508156
W        0.00000000       3.18646924      51.25823489
W        1.59323462       4.77970386      52.85140855
W       -0.00000000       6.37293849       0.79657277
W        1.59323462       7.96617311       2.38974643
W        0.00000000       6.37293849       3.98289976
W        1.59323462       7.96617311       5.57600196
W       -0.00000000       6.37293849       7.16914360
W        1.59323462       7.96617311       8.76232548
W        0.00000000       6.37293849      10.35552376
W        1.59323462       7.96617311      11.94873892
W       -0.00000000       6.37293849      13.54195714
W        1.59323462       7.96617311      15.13512368
W        0.00000000       6.37293849      16.72824473
W        1.59323462       7.96617311      18.32140203
W        0.00000000       6.37293849      19.91456148
W        1.59323462       7.96617311      21.50772305
W       -0.00000000       6.37293849      23.10092020
W        1.59323462       7.96617311      24.69409247
W       -0.00000000       6.37293849      28.95388886
W        1.59323462       7.96617311      30.54706112
W        0.00000000       6.37293849      32.14025827
W        1.59323462       7.96617311      33.73341984
W        0.00000000       6.37293849      35.32657929
W        1.59323462       7.96617311      36.91973659
W        0.00000000       6.37293849      38.51285764
W        1.59323462       7.96617311      40.10602418
W        0.00000000       6.37293849      41.69924240
W        1.59323462       7.96617311      43.29245756
W        0.00000000       6.37293849      44.88565584
W        1.59323462       7.96617311      46.47883772
W       -0.00000000       6.37293849      48.07197936
W        1.59323462       7.96617311      49.66508156
W        0.00000000       6.37293849      51.25823489
W        1.59323462       7.96617311      52.85140855
W        3.18646924       0.00000000       0.79657277
W        4.77970386       1.59323462       2.38974643
W        3.18646924      -0.00000000       3.98289976
W        4.77970386       1.59323462       5.57600196
W        3.18646924       0.00000000       7.16914360
W        4.77970386       1.59323462       8.76232548
W        3.18646924       0.00000000      10.35552376
W        4.77970386       1.59323462      11.94873892
W        3.18646924       0.00000000      13.54195714
W        4.77970386       1.59323462      15.13512368
W        3.18646924       0.00000000      16.72824473
W        4.77970386       1.59323462      18.32140203
W        3.18646924      -0.00000000      19.91456148
W        4.77970386       1.59323462      21.50772305
W        3.18646924       0.00000000      23.10092020
W        4.77970386       1.59323462      24.69409247
W        3.18646924       0.00000000      28.95388886
W        4.77970386       1.59323462      30.54706112
W        3.18646924      -0.00000000      32.14025827
W        4.77970386       1.59323462      33.73341984
W        3.18646924       0.00000000      35.32657929
W        4.77970386       1.59323462      36.91973659
W        3.18646924       0.00000000      38.51285764
W        4.77970386       1.59323462      40.10602418
W        3.18646924       0.00000000      41.69924240
W        4.77970386       1.59323462      43.29245756
W        3.18646924      -0.00000000      44.88565584
W        4.77970386       1.59323462      46.47883772
W        3.18646924       0.00000000      48.07197936
W        4.77970386       1.59323462      49.66508156
W        3.18646924       0.00000000      51.25823489
W        4.77970386       1.59323462      52.85140855
W        3.18646924       3.18646924       0.79657277
W        4.77970386       4.77970386       2.38974643
W        3.18646924       3.18646924       3.98289976
W        4.77970386       4.77970386       5.57600196
W        3.18646924       3.18646924       7.16914360
W        4.77970386       4.77970386       8.76232548
W        3.18646924       3.18646924      10.35552376
W        4.77970386       4.77970386      11.94873892
W        3.18646924       3.18646924      13.54195714
W        4.77970386       4.77970386      15.13512368
W        3.18646924       3.18646924      16.72824473
W        4.77970386       4.77970386      18.32140203
W        3.18646924       3.18646924      19.91456148
W        4.77970386       4.77970386      21.50772305
W        3.18646924       3.18646924      23.10092020
W        4.77970386       4.77970386      24.69409247
W        3.18646924       3.18646924      28.95388886
W        4.77970386       4.77970386      30.54706112
W        3.18646924       3.18646924      32.14025827
W        4.77970386       4.77970386      33.73341984
W        3.18646924       3.18646924      35.32657929
W        4.77970386       4.77970386      36.91973659
W        3.18646924       3.18646924      38.51285764
W        4.77970386       4.77970386      40.10602418
W        3.18646924       3.18646924      41.69924240
W        4.77970386       4.77970386      43.29245756
W        3.18646924       3.18646924      44.88565584
W        4.77970386       4.77970386      46.47883772
W        3.18646924       3.18646924      48.07197936
W        4.77970386       4.77970386      49.66508156
W        3.18646924       3.18646924      51.25823489
W        4.77970386       4.77970386      52.85140855
W        3.18646924       6.37293849       0.79657277
W        4.77970386       7.96617311       2.38974643
W        3.18646924       6.37293849       3.98289976
W        4.77970386       7.96617311       5.57600196
W        3.18646924       6.37293849       7.16914360
W        4.77970386       7.96617311       8.76232548
W        3.18646924       6.37293849      10.35552376
W        4.77970386       7.96617311      11.94873892
W        3.18646924       6.37293849      13.54195714
W        4.77970386       7.96617311      15.13512368
W        3.18646924       6.37293849      16.72824473
W        4.77970386       7.96617311      18.32140203
W        3.18646924       6.37293849      19.91456148
W        4.77970386       7.96617311      21.50772305
W        3.18646924       6.37293849      23.10092020
W        4.77970386       7.96617311      24.69409247
W        3.18646924       6.37293849      28.95388886
W        4.77970386       7.96617311      30.54706112
W        3.18646924       6.37293849      32.14025827
W        4.77970386       7.96617311      33.73341984
W        3.18646924       6.37293849      35.32657929
W        4.77970386       7.96617311      36.91973659
W        3.18646924       6.37293849      38.51285764
W        4.77970386       7.96617311      40.10602418
W        3.18646924       6.37293849      41.69924240
W        4.77970386       7.96617311      43.29245756
W        3.18646924       6.37293849      44.88565584
W        4.77970386       7.96617311      46.47883772
W        3.18646924       6.37293849      48.07197936
W        4.77970386       7.96617311      49.66508156
W        3.18646924       6.37293849      51.25823489
W        4.77970386       7.96617311      52.85140855
W        6.37293849       0.00000000       0.79657277
W        7.96617311       1.59323462       2.38974643
W        6.37293849       0.00000000       3.98289976
W        7.96617311       1.59323462       5.57600196
W        6.37293849       0.00000000       7.16914360
W        7.96617311       1.59323462       8.76232548
W        6.37293849      -0.00000000      10.35552376
W        7.96617311       1.59323462      11.94873892
W        6.37293849       0.00000000      13.54195714
W        7.96617311       1.59323462      15.13512368
W        6.37293849      -0.00000000      16.72824473
W        7.96617311       1.59323462      18.32140203
W        6.37293849       0.00000000      19.91456148
W        7.96617311       1.59323462      21.50772305
W        6.37293849       0.00000000      23.10092020
W        7.96617311       1.59323462      24.69409247
W        6.37293849       0.00000000      28.95388886
W        7.96617311       1.59323462      30.54706112
W        6.37293849       0.00000000      32.14025827
W        7.96617311       1.59323462      33.73341984
W        6.37293849      -0.00000000      35.32657929
W        7.96617311       1.59323462      36.91973659
W        6.37293849       0.00000000      38.51285764
W        7.96617311       1.59323462      40.10602418
W        6.37293849      -0.00000000      41.69924240
W        7.96617311       1.59323462      43.29245756
W        6.37293849       0.00000000      44.88565584
W        7.96617311       1.59323462      46.47883772
W        6.37293849       0.00000000      48.07197936
W        7.96617311       1.59323462      49.66508156
W        6.37293849      -0.00000000      51.25823489
W        7.96617311       1.59323462      52.85140855
W        6.37293849       3.18646924       0.79657277
W        7.96617311       4.77970386       2.38974643
W        6.37293849       3.18646924       3.98289976
W        7.96617311       4.77970386       5.57600196
W        6.37293849       3.18646924       7.16914360
W        7.96617311       4.77970386       8.76232548
W        6.37293849       3.18646924      10.35552376
W        7.96617311       4.77970386      11.94873892
W        6.37293849       3.18646924      13.54195714
W        7.96617311       4.77970386      15.13512368
W        6.37293849       3.18646924      16.72824473
W        7.96617311       4.77970386      18.32140203
W        6.37293849       3.18646924      19.91456148
W        7.96617311       4.77970386      21.50772305
W        6.37293849       3.18646924      23.10092020
W        7.96617311       4.77970386      24.69409247
W        6.37293849       3.18646924      28.95388886
W        7.96617311       4.77970386      30.54706112
W        6.37293849       3.18646924      32.14025827
W        7.96617311       4.77970386      33.73341984
W        6.37293849       3.18646924      35.32657929
W        7.96617311       4.77970386      36.91973659
W        6.37293849       3.18646924      38.51285764
W        7.96617311       4.77970386      40.10602418
W        6.37293849       3.18646924      41.69924240
W        7.96617311       4.77970386      43.29245756
W        6.37293849       3.18646924      44.88565584
W        7.96617311       4.77970386      46.47883772
W        6.37293849       3.18646924      48.07197936
W        7.96617311       4.77970386      49.66508156
W        6.37293849       3.18646924      51.25823489
W        7.96617311       4.77970386      52.85140855
W        6.37293849       6.37293849       0.79657277
W        7.96617311       7.96617311       2.38974643
W        6.37293849       6.37293849       3.98289976
W        7.96617311       7.96617311       5.57600196
W        6.37293849       6.37293849       7.16914360
W        7.96617311       7.96617311       8.76232548
W        6.37293849       6.37293849      10.35552376
W        7.96617311       7.96617311      11.94873892
W        6.37293849       6.37293849      13.54195714
W        7.96617311       7.96617311      15.13512368
W        6.37293849       6.37293849      16.72824473
W        7.96617311       7.96617311      18.32140203
W        6.37293849       6.37293849      19.91456148
W        7.96617311       7.96617311      21.50772305
W        6.37293849       6.37293849      23.10092020
W        7.96617311       7.96617311      24.69409247
W        6.37293849       6.37293849      28.95388886
W        7.96617311       7.96617311      30.54706112
W        6.37293849       6.37293849      32.14025827
W        7.96617311       7.96617311      33.73341984
W        6.37293849       6.37293849      35.32657929
W        7.96617311       7.96617311      36.91973659
W        6.37293849       6.37293849      38.51285764
W        7.96617311       7.96617311      40.10602418
W        6.37293849       6.37293849      41.69924240
W        7.96617311       7.96617311      43.29245756
W        6.37293849       6.37293849      44.88565584
W        7.96617311       7.96617311      46.47883772
W        6.37293849       6.37293849      48.07197936
W        7.96617311       7.96617311      49.66508156
W        6.37293849       6.37293849      51.25823489
W        7.96617311       7.96617311      52.85140855
288
Lattice="9.559407728649656 -9.087318898702386e-18 2.3918883122634095e-17 -9.087318898702381e-18 9.559407728649656 -2.3057458068536844e-17 1.2294658829237918e-16 -1.138024128057971e-16 53.750545423361416" Properties=species:S:1:pos:R:3 vacuum_gap_Ang=2.769230769230769 frame_index=27 pbc="T T T"
W       -0.00000000       0.00000000       0.79657277
W        1.59323462       1.59323462       2.38974643
W       -0.00000000       0.00000000       3.98289976
W        1.59323462       1.59323462       5.57600196
W       -0.00000000       0.00000000       7.16914360
W        1.59323462       1.59323462       8.76232548
W        0.00000000      -0.00000000      10.35552376
W        1.59323462       1.59323462      11.94873892
W       -0.00000000       0.00000000      13.54195714
W        1.59323462       1.59323462      15.13512368
W        0.00000000       0.00000000      16.72824473
W        1.59323462       1.59323462      18.32140203
W        0.00000000       0.00000000      19.91456148
W        1.59323462       1.59323462      21.50772305
W        0.00000000       0.00000000      23.10092020
W        1.59323462       1.59323462      24.69409247
W       -0.00000000       0.00000000      29.05645296
W        1.59323462       1.59323462      30.64962522
W       -0.00000000       0.00000000      32.24282237
W        1.59323462       1.59323462      33.83598394
W        0.00000000      -0.00000000      35.42914339
W        1.59323462       1.59323462      37.02230070
W        0.00000000      -0.00000000      38.61542174
W        1.59323462       1.59323462      40.20858829
W       -0.00000000      -0.00000000      41.80180650
W        1.59323462       1.59323462      43.39502167
W        0.00000000      -0.00000000      44.98821994
W        1.59323462       1.59323462      46.58140183
W        0.00000000      -0.00000000      48.17454346
W        1.59323462       1.59323462      49.76764567
W        0.00000000       0.00000000      51.36079899
W        1.59323462       1.59323462      52.95397266
W        0.00000000       3.18646924       0.79657277
W        1.59323462       4.77970386       2.38974643
W        0.00000000       3.18646924       3.98289976
W        1.59323462       4.77970386       5.57600196
W       -0.00000000       3.18646924       7.16914360
W        1.59323462       4.77970386       8.76232548
W       -0.00000000       3.18646924      10.35552376
W        1.59323462       4.77970386      11.94873892
W       -0.00000000       3.18646924      13.54195714
W        1.59323462       4.77970386      15.13512368
W        0.00000000       3.18646924      16.72824473
W        1.59323462       4.77970386      18.32140203
W       -0.00000000       3.18646924      19.91456148
W        1.59323462       4.77970386      21.50772305
W        0.00000000       3.18646924      23.10092020
W        1.59323462       4.77970386      24.69409247
W        0.00000000       3.18646924      29.05645296
W        1.59323462       4.77970386      30.64962522
W       -0.00000000       3.18646924      32.24282237
W        1.59323462       4.77970386      33.83598394
W        0.00000000       3.18646924      35.42914339
W        1.59323462       4.77970386      37.02230070
W       -0.00000000       3.18646924      38.61542174
W        1.59323462       4.77970386      40.20858829
W        0.00000000       3.18646924      41.80180650
W        1.59323462       4.77970386      43.39502167
W       -0.00000000       3.18646924      44.98821994
W        1.59323462       4.77970386      46.58140183
W       -0.00000000       3.18646924      48.17454346
W        1.59323462       4.77970386      49.76764567
W        0.00000000       3.18646924      51.36079899
W        1.59323462       4.77970386      52.95397266
W       -0.00000000       6.37293849       0.79657277
W        1.59323462       7.96617311       2.38974643
W        0.00000000       6.37293849       3.98289976
W        1.59323462       7.96617311       5.57600196
W       -0.00000000       6.37293849       7.16914360
W        1.59323462       7.96617311       8.76232548
W        0.00000000       6.37293849      10.35552376
W        1.59323462       7.96617311      11.94873892
W       -0.00000000       6.37293849      13.54195714
W        1.59323462       7.96617311      15.13512368
W        0.00000000       6.37293849      16.72824473
W        1.59323462       7.96617311      18.32140203
W        0.00000000       6.37293849      19.91456148
W        1.59323462       7.96617311      21.50772305
W       -0.00000000       6.37293849      23.10092020
W        1.59323462       7.96617311      24.69409247
W       -0.00000000       6.37293849      29.05645296
W        1.59323462       7.96617311      30.64962522
W        0.00000000       6.37293849      32.24282237
W        1.59323462       7.96617311      33.83598394
W        0.00000000       6.37293849      35.42914339
W        1.59323462       7.96617311      37.02230070
W        0.00000000       6.37293849      38.61542174
W        1.59323462       7.96617311      40.20858829
W        0.00000000       6.37293849      41.80180650
W        1.59323462       7.96617311      43.39502167
W        0.00000000       6.37293849      44.98821994
W        1.59323462       7.96617311      46.58140183
W       -0.00000000       6.37293849      48.17454346
W        1.59323462       7.96617311      49.76764567
W        0.00000000       6.37293849      51.36079899
W        1.59323462       7.96617311      52.95397266
W        3.18646924       0.00000000       0.79657277
W        4.77970386       1.59323462       2.38974643
W        3.18646924      -0.00000000       3.98289976
W        4.77970386       1.59323462       5.57600196
W        3.18646924       0.00000000       7.16914360
W        4.77970386       1.59323462       8.76232548
W        3.18646924       0.00000000      10.35552376
W        4.77970386       1.59323462      11.94873892
W        3.18646924       0.00000000      13.54195714
W        4.77970386       1.59323462      15.13512368
W        3.18646924       0.00000000      16.72824473
W        4.77970386       1.59323462      18.32140203
W        3.18646924      -0.00000000      19.91456148
W        4.77970386       1.59323462      21.50772305
W        3.18646924       0.00000000      23.10092020
W        4.77970386       1.59323462      24.69409247
W        3.18646924       0.00000000      29.05645296
W        4.77970386       1.59323462      30.64962522
W        3.18646924      -0.00000000      32.24282237
W        4.77970386       1.59323462      33.83598394
W        3.18646924       0.00000000      35.42914339
W        4.77970386       1.59323462      37.02230070
W        3.18646924       0.00000000      38.61542174
W        4.77970386       1.59323462      40.20858829
W        3.18646924       0.00000000      41.80180650
W        4.77970386       1.59323462      43.39502167
W        3.18646924      -0.00000000      44.98821994
W        4.77970386       1.59323462      46.58140183
W        3.18646924       0.00000000      48.17454346
W        4.77970386       1.59323462      49.76764567
W        3.18646924       0.00000000      51.36079899
W        4.77970386       1.59323462      52.95397266
W        3.18646924       3.18646924       0.79657277
W        4.77970386       4.77970386       2.38974643
W        3.18646924       3.18646924       3.98289976
W        4.77970386       4.77970386       5.57600196
W        3.18646924       3.18646924       7.16914360
W        4.77970386       4.77970386       8.76232548
W        3.18646924       3.18646924      10.35552376
W        4.77970386       4.77970386      11.94873892
W        3.18646924       3.18646924      13.54195714
W        4.77970386       4.77970386      15.13512368
W        3.18646924       3.18646924      16.72824473
W        4.77970386       4.77970386      18.32140203
W        3.18646924       3.18646924      19.91456148
W        4.77970386       4.77970386      21.50772305
W        3.18646924       3.18646924      23.10092020
W        4.77970386       4.77970386      24.69409247
W        3.18646924       3.18646924      29.05645296
W        4.77970386       4.77970386      30.64962522
W        3.18646924       3.18646924      32.24282237
W        4.77970386       4.77970386      33.83598394
W        3.18646924       3.18646924      35.42914339
W        4.77970386       4.77970386      37.02230070
W        3.18646924       3.18646924      38.61542174
W        4.77970386       4.77970386      40.20858829
W        3.18646924       3.18646924      41.80180650
W        4.77970386       4.77970386      43.39502167
W        3.18646924       3.18646924      44.98821994
W        4.77970386       4.77970386      46.58140183
W        3.18646924       3.18646924      48.17454346
W        4.77970386       4.77970386      49.76764567
W        3.18646924       3.18646924      51.36079899
W        4.77970386       4.77970386      52.95397266
W        3.18646924       6.37293849       0.79657277
W        4.77970386       7.96617311       2.38974643
W        3.18646924       6.37293849       3.98289976
W        4.77970386       7.96617311       5.57600196
W        3.18646924       6.37293849       7.16914360
W        4.77970386       7.96617311       8.76232548
W        3.18646924       6.37293849      10.35552376
W        4.77970386       7.96617311      11.94873892
W        3.18646924       6.37293849      13.54195714
W        4.77970386       7.96617311      15.13512368
W        3.18646924       6.37293849      16.72824473
W        4.77970386       7.96617311      18.32140203
W        3.18646924       6.37293849      19.91456148
W        4.77970386       7.96617311      21.50772305
W        3.18646924       6.37293849      23.10092020
W        4.77970386       7.96617311      24.69409247
W        3.18646924       6.37293849      29.05645296
W        4.77970386       7.96617311      30.64962522
W        3.18646924       6.37293849      32.24282237
W        4.77970386       7.96617311      33.83598394
W        3.18646924       6.37293849      35.42914339
W        4.77970386       7.96617311      37.02230070
W        3.18646924       6.37293849      38.61542174
W        4.77970386       7.96617311      40.20858829
W        3.18646924       6.37293849      41.80180650
W        4.77970386       7.96617311      43.39502167
W        3.18646924       6.37293849      44.98821994
W        4.77970386       7.96617311      46.58140183
W        3.18646924       6.37293849      48.17454346
W        4.77970386       7.96617311      49.76764567
W        3.18646924       6.37293849      51.36079899
W        4.77970386       7.96617311      52.95397266
W        6.37293849       0.00000000       0.79657277
W        7.96617311       1.59323462       2.38974643
W        6.37293849       0.00000000       3.98289976
W        7.96617311       1.59323462       5.57600196
W        6.37293849       0.00000000       7.16914360
W        7.96617311       1.59323462       8.76232548
W        6.37293849      -0.00000000      10.35552376
W        7.96617311       1.59323462      11.94873892
W        6.37293849       0.00000000      13.54195714
W        7.96617311       1.59323462      15.13512368
W        6.37293849      -0.00000000      16.72824473
W        7.96617311       1.59323462      18.32140203
W        6.37293849       0.00000000      19.91456148
W        7.96617311       1.59323462      21.50772305
W        6.37293849       0.00000000      23.10092020
W        7.96617311       1.59323462      24.69409247
W        6.37293849       0.00000000      29.05645296
W        7.96617311       1.59323462      30.64962522
W        6.37293849       0.00000000      32.24282237
W        7.96617311       1.59323462      33.83598394
W        6.37293849      -0.00000000      35.42914339
W        7.96617311       1.59323462      37.02230070
W        6.37293849       0.00000000      38.61542174
W        7.96617311       1.59323462      40.20858829
W        6.37293849      -0.00000000      41.80180650
W        7.96617311       1.59323462      43.39502167
W        6.37293849       0.00000000      44.98821994
W        7.96617311       1.59323462      46.58140183
W        6.37293849       0.00000000      48.17454346
W        7.96617311       1.59323462      49.76764567
W        6.37293849      -0.00000000      51.36079899
W        7.96617311       1.59323462      52.95397266
W        6.37293849       3.18646924       0.79657277
W        7.96617311       4.77970386       2.38974643
W        6.37293849       3.18646924       3.98289976
W        7.96617311       4.77970386       5.57600196
W        6.37293849       3.18646924       7.16914360
W        7.96617311       4.77970386       8.76232548
W        6.37293849       3.18646924      10.35552376
W        7.96617311       4.77970386      11.94873892
W        6.37293849       3.18646924      13.54195714
W        7.96617311       4.77970386      15.13512368
W        6.37293849       3.18646924      16.72824473
W        7.96617311       4.77970386      18.32140203
W        6.37293849       3.18646924      19.91456148
W        7.96617311       4.77970386      21.50772305
W        6.37293849       3.18646924      23.10092020
W        7.96617311       4.77970386      24.69409247
W        6.37293849       3.18646924      29.05645296
W        7.96617311       4.77970386      30.64962522
W        6.37293849       3.18646924      32.24282237
W        7.96617311       4.77970386      33.83598394
W        6.37293849       3.18646924      35.42914339
W        7.96617311       4.77970386      37.02230070
W        6.37293849       3.18646924      38.61542174
W        7.96617311       4.77970386      40.20858829
W        6.37293849       3.18646924      41.80180650
W        7.96617311       4.77970386      43.39502167
W        6.37293849       3.18646924      44.98821994
W        7.96617311       4.77970386      46.58140183
W        6.37293849       3.18646924      48.17454346
W        7.96617311       4.77970386      49.76764567
W        6.37293849       3.18646924      51.36079899
W        7.96617311       4.77970386      52.95397266
W        6.37293849       6.37293849       0.79657277
W        7.96617311       7.96617311       2.38974643
W        6.37293849       6.37293849       3.98289976
W        7.96617311       7.96617311       5.57600196
W        6.37293849       6.37293849       7.16914360
W        7.96617311       7.96617311       8.76232548
W        6.37293849       6.37293849      10.35552376
W        7.96617311       7.96617311      11.94873892
W        6.37293849       6.37293849      13.54195714
W        7.96617311       7.96617311      15.13512368
W        6.37293849       6.37293849      16.72824473
W        7.96617311       7.96617311      18.32140203
W        6.37293849       6.37293849      19.91456148
W        7.96617311       7.96617311      21.50772305
W        6.37293849       6.37293849      23.10092020
W        7.96617311       7.96617311      24.69409247
W        6.37293849       6.37293849      29.05645296
W        7.96617311       7.96617311      30.64962522
W        6.37293849       6.37293849      32.24282237
W        7.96617311       7.96617311      33.83598394
W        6.37293849       6.37293849      35.42914339
W        7.96617311       7.96617311      37.02230070
W        6.37293849       6.37293849      38.61542174
W        7.96617311       7.96617311      40.20858829
W        6.37293849       6.37293849      41.80180650
W        7.96617311       7.96617311      43.39502167
W        6.37293849       6.37293849      44.98821994
W        7.96617311       7.96617311      46.58140183
W        6.37293849       6.37293849      48.17454346
W        7.96617311       7.96617311      49.76764567
W        6.37293849       6.37293849      51.36079899
W        7.96617311       7.96617311      52.95397266
288
Lattice="9.559407728649656 -9.087318898702386e-18 2.3918883122634095e-17 -9.087318898702381e-18 9.559407728649656 -2.3057458068536844e-17 1.2294658829237918e-16 -1.138024128057971e-16 53.85310952592552" Properties=species:S:1:pos:R:3 vacuum_gap_Ang=2.871794871794872 frame_index=28 pbc="T T T"
W       -0.00000000       0.00000000       0.79657277
W        1.59323462       1.59323462       2.38974643
W       -0.00000000       0.00000000       3.98289976
W        1.59323462       1.59323462       5.57600196
W       -0.00000000       0.00000000       7.16914360
W        1.59323462       1.59323462       8.76232548
W        0.00000000      -0.00000000      10.35552376
W        1.59323462       1.59323462      11.94873892
W       -0.00000000       0.00000000      13.54195714
W        1.59323462       1.59323462      15.13512368
W        0.00000000       0.00000000      16.72824473
W        1.59323462       1.59323462      18.32140203
W        0.00000000       0.00000000      19.91456148
W        1.59323462       1.59323462      21.50772305
W        0.00000000       0.00000000      23.10092020
W        1.59323462       1.59323462      24.69409247
W       -0.00000000       0.00000000      29.15901706
W        1.59323462       1.59323462      30.75218932
W       -0.00000000       0.00000000      32.34538647
W        1.59323462       1.59323462      33.93854804
W        0.00000000      -0.00000000      35.53170749
W        1.59323462       1.59323462      37.12486480
W        0.00000000      -0.00000000      38.71798585
W        1.59323462       1.59323462      40.31115239
W       -0.00000000      -0.00000000      41.90437060
W        1.59323462       1.59323462      43.49758577
W        0.00000000      -0.00000000      45.09078404
W        1.59323462       1.59323462      46.68396593
W        0.00000000      -0.00000000      48.27710757
W        1.59323462       1.59323462      49.87020977
W        0.00000000       0.00000000      51.46336309
W        1.59323462       1.59323462      53.05653676
W        0.00000000       3.18646924       0.79657277
W        1.59323462       4.77970386       2.38974643
W        0.00000000       3.18646924       3.98289976
W        1.59323462       4.77970386       5.57600196
W       -0.00000000       3.18646924       7.16914360
W        1.59323462       4.77970386       8.76232548
W       -0.00000000       3.18646924      10.35552376
W        1.59323462       4.77970386      11.94873892
W       -0.00000000       3.18646924      13.54195714
W        1.59323462       4.77970386      15.13512368
W        0.00000000       3.18646924      16.72824473
W        1.59323462       4.77970386      18.32140203
W       -0.00000000       3.18646924      19.91456148
W        1.59323462       4.77970386      21.50772305
W        0.00000000       3.18646924      23.10092020
W        1.59323462       4.77970386      24.69409247
W        0.00000000       3.18646924      29.15901706
W        1.59323462       4.77970386      30.75218932
W       -0.00000000       3.18646924      32.34538647
W        1.59323462       4.77970386      33.93854804
W        0.00000000       3.18646924      35.53170749
W        1.59323462       4.77970386      37.12486480
W       -0.00000000       3.18646924      38.71798585
W        1.59323462       4.77970386      40.31115239
W        0.00000000       3.18646924      41.90437060
W        1.59323462       4.77970386      43.49758577
W       -0.00000000       3.18646924      45.09078404
W        1.59323462       4.77970386      46.68396593
W       -0.00000000       3.18646924      48.27710757
W        1.59323462       4.77970386      49.87020977
W        0.00000000       3.18646924      51.46336309
W        1.59323462       4.77970386      53.05653676
W       -0.00000000       6.37293849       0.79657277
W        1.59323462       7.96617311       2.38974643
W        0.00000000       6.37293849       3.98289976
W        1.59323462       7.96617311       5.57600196
W       -0.00000000       6.37293849       7.16914360
W        1.59323462       7.96617311       8.76232548
W        0.00000000       6.37293849      10.35552376
W        1.59323462       7.96617311      11.94873892
W       -0.00000000       6.37293849      13.54195714
W        1.59323462       7.96617311      15.13512368
W        0.00000000       6.37293849      16.72824473
W        1.59323462       7.96617311      18.32140203
W        0.00000000       6.37293849      19.91456148
W        1.59323462       7.96617311      21.50772305
W       -0.00000000       6.37293849      23.10092020
W        1.59323462       7.96617311      24.69409247
W       -0.00000000       6.37293849      29.15901706
W        1.59323462       7.96617311      30.75218932
W        0.00000000       6.37293849      32.34538647
W        1.59323462       7.96617311      33.93854804
W        0.00000000       6.37293849      35.53170749
W        1.59323462       7.96617311      37.12486480
W        0.00000000       6.37293849      38.71798585
W        1.59323462       7.96617311      40.31115239
W        0.00000000       6.37293849      41.90437060
W        1.59323462       7.96617311      43.49758577
W        0.00000000       6.37293849      45.09078404
W        1.59323462       7.96617311      46.68396593
W       -0.00000000       6.37293849      48.27710757
W        1.59323462       7.96617311      49.87020977
W        0.00000000       6.37293849      51.46336309
W        1.59323462       7.96617311      53.05653676
W        3.18646924       0.00000000       0.79657277
W        4.77970386       1.59323462       2.38974643
W        3.18646924      -0.00000000       3.98289976
W        4.77970386       1.59323462       5.57600196
W        3.18646924       0.00000000       7.16914360
W        4.77970386       1.59323462       8.76232548
W        3.18646924       0.00000000      10.35552376
W        4.77970386       1.59323462      11.94873892
W        3.18646924       0.00000000      13.54195714
W        4.77970386       1.59323462      15.13512368
W        3.18646924       0.00000000      16.72824473
W        4.77970386       1.59323462      18.32140203
W        3.18646924      -0.00000000      19.91456148
W        4.77970386       1.59323462      21.50772305
W        3.18646924       0.00000000      23.10092020
W        4.77970386       1.59323462      24.69409247
W        3.18646924       0.00000000      29.15901706
W        4.77970386       1.59323462      30.75218932
W        3.18646924      -0.00000000      32.34538647
W        4.77970386       1.59323462      33.93854804
W        3.18646924       0.00000000      35.53170749
W        4.77970386       1.59323462      37.12486480
W        3.18646924       0.00000000      38.71798585
W        4.77970386       1.59323462      40.31115239
W        3.18646924       0.00000000      41.90437060
W        4.77970386       1.59323462      43.49758577
W        3.18646924      -0.00000000      45.09078404
W        4.77970386       1.59323462      46.68396593
W        3.18646924       0.00000000      48.27710757
W        4.77970386       1.59323462      49.87020977
W        3.18646924       0.00000000      51.46336309
W        4.77970386       1.59323462      53.05653676
W        3.18646924       3.18646924       0.79657277
W        4.77970386       4.77970386       2.38974643
W        3.18646924       3.18646924       3.98289976
W        4.77970386       4.77970386       5.57600196
W        3.18646924       3.18646924       7.16914360
W        4.77970386       4.77970386       8.76232548
W        3.18646924       3.18646924      10.35552376
W        4.77970386       4.77970386      11.94873892
W        3.18646924       3.18646924      13.54195714
W        4.77970386       4.77970386      15.13512368
W        3.18646924       3.18646924      16.72824473
W        4.77970386       4.77970386      18.32140203
W        3.18646924       3.18646924      19.91456148
W        4.77970386       4.77970386      21.50772305
W        3.18646924       3.18646924      23.10092020
W        4.77970386       4.77970386      24.69409247
W        3.18646924       3.18646924      29.15901706
W        4.77970386       4.77970386      30.75218932
W        3.18646924       3.18646924      32.34538647
W        4.77970386       4.77970386      33.93854804
W        3.18646924       3.18646924      35.53170749
W        4.77970386       4.77970386      37.12486480
W        3.18646924       3.18646924      38.71798585
W        4.77970386       4.77970386      40.31115239
W        3.18646924       3.18646924      41.90437060
W        4.77970386       4.77970386      43.49758577
W        3.18646924       3.18646924      45.09078404
W        4.77970386       4.77970386      46.68396593
W        3.18646924       3.18646924      48.27710757
W        4.77970386       4.77970386      49.87020977
W        3.18646924       3.18646924      51.46336309
W        4.77970386       4.77970386      53.05653676
W        3.18646924       6.37293849       0.79657277
W        4.77970386       7.96617311       2.38974643
W        3.18646924       6.37293849       3.98289976
W        4.77970386       7.96617311       5.57600196
W        3.18646924       6.37293849       7.16914360
W        4.77970386       7.96617311       8.76232548
W        3.18646924       6.37293849      10.35552376
W        4.77970386       7.96617311      11.94873892
W        3.18646924       6.37293849      13.54195714
W        4.77970386       7.96617311      15.13512368
W        3.18646924       6.37293849      16.72824473
W        4.77970386       7.96617311      18.32140203
W        3.18646924       6.37293849      19.91456148
W        4.77970386       7.96617311      21.50772305
W        3.18646924       6.37293849      23.10092020
W        4.77970386       7.96617311      24.69409247
W        3.18646924       6.37293849      29.15901706
W        4.77970386       7.96617311      30.75218932
W        3.18646924       6.37293849      32.34538647
W        4.77970386       7.96617311      33.93854804
W        3.18646924       6.37293849      35.53170749
W        4.77970386       7.96617311      37.12486480
W        3.18646924       6.37293849      38.71798585
W        4.77970386       7.96617311      40.31115239
W        3.18646924       6.37293849      41.90437060
W        4.77970386       7.96617311      43.49758577
W        3.18646924       6.37293849      45.09078404
W        4.77970386       7.96617311      46.68396593
W        3.18646924       6.37293849      48.27710757
W        4.77970386       7.96617311      49.87020977
W        3.18646924       6.37293849      51.46336309
W        4.77970386       7.96617311      53.05653676
W        6.37293849       0.00000000       0.79657277
W        7.96617311       1.59323462       2.38974643
W        6.37293849       0.00000000       3.98289976
W        7.96617311       1.59323462       5.57600196
W        6.37293849       0.00000000       7.16914360
W        7.96617311       1.59323462       8.76232548
W        6.37293849      -0.00000000      10.35552376
W        7.96617311       1.59323462      11.94873892
W        6.37293849       0.00000000      13.54195714
W        7.96617311       1.59323462      15.13512368
W        6.37293849      -0.00000000      16.72824473
W        7.96617311       1.59323462      18.32140203
W        6.37293849       0.00000000      19.91456148
W        7.96617311       1.59323462      21.50772305
W        6.37293849       0.00000000      23.10092020
W        7.96617311       1.59323462      24.69409247
W        6.37293849       0.00000000      29.15901706
W        7.96617311       1.59323462      30.75218932
W        6.37293849       0.00000000      32.34538647
W        7.96617311       1.59323462      33.93854804
W        6.37293849      -0.00000000      35.53170749
W        7.96617311       1.59323462      37.12486480
W        6.37293849       0.00000000      38.71798585
W        7.96617311       1.59323462      40.31115239
W        6.37293849      -0.00000000      41.90437060
W        7.96617311       1.59323462      43.49758577
W        6.37293849       0.00000000      45.09078404
W        7.96617311       1.59323462      46.68396593
W        6.37293849       0.00000000      48.27710757
W        7.96617311       1.59323462      49.87020977
W        6.37293849      -0.00000000      51.46336309
W        7.96617311       1.59323462      53.05653676
W        6.37293849       3.18646924       0.79657277
W        7.96617311       4.77970386       2.38974643
W        6.37293849       3.18646924       3.98289976
W        7.96617311       4.77970386       5.57600196
W        6.37293849       3.18646924       7.16914360
W        7.96617311       4.77970386       8.76232548
W        6.37293849       3.18646924      10.35552376
W        7.96617311       4.77970386      11.94873892
W        6.37293849       3.18646924      13.54195714
W        7.96617311       4.77970386      15.13512368
W        6.37293849       3.18646924      16.72824473
W        7.96617311       4.77970386      18.32140203
W        6.37293849       3.18646924      19.91456148
W        7.96617311       4.77970386      21.50772305
W        6.37293849       3.18646924      23.10092020
W        7.96617311       4.77970386      24.69409247
W        6.37293849       3.18646924      29.15901706
W        7.96617311       4.77970386      30.75218932
W        6.37293849       3.18646924      32.34538647
W        7.96617311       4.77970386      33.93854804
W        6.37293849       3.18646924      35.53170749
W        7.96617311       4.77970386      37.12486480
W        6.37293849       3.18646924      38.71798585
W        7.96617311       4.77970386      40.31115239
W        6.37293849       3.18646924      41.90437060
W        7.96617311       4.77970386      43.49758577
W        6.37293849       3.18646924      45.09078404
W        7.96617311       4.77970386      46.68396593
W        6.37293849       3.18646924      48.27710757
W        7.96617311       4.77970386      49.87020977
W        6.37293849       3.18646924      51.46336309
W        7.96617311       4.77970386      53.05653676
W        6.37293849       6.37293849       0.79657277
W        7.96617311       7.96617311       2.38974643
W        6.37293849       6.37293849       3.98289976
W        7.96617311       7.96617311       5.57600196
W        6.37293849       6.37293849       7.16914360
W        7.96617311       7.96617311       8.76232548
W        6.37293849       6.37293849      10.35552376
W        7.96617311       7.96617311      11.94873892
W        6.37293849       6.37293849      13.54195714
W        7.96617311       7.96617311      15.13512368
W        6.37293849       6.37293849      16.72824473
W        7.96617311       7.96617311      18.32140203
W        6.37293849       6.37293849      19.91456148
W        7.96617311       7.96617311      21.50772305
W        6.37293849       6.37293849      23.10092020
W        7.96617311       7.96617311      24.69409247
W        6.37293849       6.37293849      29.15901706
W        7.96617311       7.96617311      30.75218932
W        6.37293849       6.37293849      32.34538647
W        7.96617311       7.96617311      33.93854804
W        6.37293849       6.37293849      35.53170749
W        7.96617311       7.96617311      37.12486480
W        6.37293849       6.37293849      38.71798585
W        7.96617311       7.96617311      40.31115239
W        6.37293849       6.37293849      41.90437060
W        7.96617311       7.96617311      43.49758577
W        6.37293849       6.37293849      45.09078404
W        7.96617311       7.96617311      46.68396593
W        6.37293849       6.37293849      48.27710757
W        7.96617311       7.96617311      49.87020977
W        6.37293849       6.37293849      51.46336309
W        7.96617311       7.96617311      53.05653676
288
Lattice="9.559407728649656 -9.087318898702386e-18 2.3918883122634095e-17 -9.087318898702381e-18 9.559407728649656 -2.3057458068536844e-17 1.2294658829237918e-16 -1.138024128057971e-16 53.95567362848962" Properties=species:S:1:pos:R:3 vacuum_gap_Ang=2.9743589743589745 frame_index=29 pbc="T T T"
W       -0.00000000       0.00000000       0.79657277
W        1.59323462       1.59323462       2.38974643
W       -0.00000000       0.00000000       3.98289976
W        1.59323462       1.59323462       5.57600196
W       -0.00000000       0.00000000       7.16914360
W        1.59323462       1.59323462       8.76232548
W        0.00000000      -0.00000000      10.35552376
W        1.59323462       1.59323462      11.94873892
W       -0.00000000       0.00000000      13.54195714
W        1.59323462       1.59323462      15.13512368
W        0.00000000       0.00000000      16.72824473
W        1.59323462       1.59323462      18.32140203
W        0.00000000       0.00000000      19.91456148
W        1.59323462       1.59323462      21.50772305
W        0.00000000       0.00000000      23.10092020
W        1.59323462       1.59323462      24.69409247
W       -0.00000000       0.00000000      29.26158116
W        1.59323462       1.59323462      30.85475342
W       -0.00000000       0.00000000      32.44795057
W        1.59323462       1.59323462      34.04111215
W        0.00000000      -0.00000000      35.63427159
W        1.59323462       1.59323462      37.22742890
W        0.00000000      -0.00000000      38.82054995
W        1.59323462       1.59323462      40.41371649
W       -0.00000000      -0.00000000      42.00693470
W        1.59323462       1.59323462      43.60014987
W        0.00000000      -0.00000000      45.19334815
W        1.59323462       1.59323462      46.78653003
W        0.00000000      -0.00000000      48.37967167
W        1.59323462       1.59323462      49.97277387
W        0.00000000       0.00000000      51.56592719
W        1.59323462       1.59323462      53.15910086
W        0.00000000       3.18646924       0.79657277
W        1.59323462       4.77970386       2.38974643
W        0.00000000       3.18646924       3.98289976
W        1.59323462       4.77970386       5.57600196
W       -0.00000000       3.18646924       7.16914360
W        1.59323462       4.77970386       8.76232548
W       -0.00000000       3.18646924      10.35552376
W        1.59323462       4.77970386      11.94873892
W       -0.00000000       3.18646924      13.54195714
W        1.59323462       4.77970386      15.13512368
W        0.00000000       3.18646924      16.72824473
W        1.59323462       4.77970386      18.32140203
W       -0.00000000       3.18646924      19.91456148
W        1.59323462       4.77970386      21.50772305
W        0.00000000       3.18646924      23.10092020
W        1.59323462       4.77970386      24.69409247
W        0.00000000       3.18646924      29.26158116
W        1.59323462       4.77970386      30.85475342
W       -0.00000000       3.18646924      32.44795057
W        1.59323462       4.77970386      34.04111215
W        0.00000000       3.18646924      35.63427159
W        1.59323462       4.77970386      37.22742890
W       -0.00000000       3.18646924      38.82054995
W        1.59323462       4.77970386      40.41371649
W        0.00000000       3.18646924      42.00693470
W        1.59323462       4.77970386      43.60014987
W       -0.00000000       3.18646924      45.19334815
W        1.59323462       4.77970386      46.78653003
W       -0.00000000       3.18646924      48.37967167
W        1.59323462       4.77970386      49.97277387
W        0.00000000       3.18646924      51.56592719
W        1.59323462       4.77970386      53.15910086
W       -0.00000000       6.37293849       0.79657277
W        1.59323462       7.96617311       2.38974643
W        0.00000000       6.37293849       3.98289976
W        1.59323462       7.96617311       5.57600196
W       -0.00000000       6.37293849       7.16914360
W        1.59323462       7.96617311       8.76232548
W        0.00000000       6.37293849      10.35552376
W        1.59323462       7.96617311      11.94873892
W       -0.00000000       6.37293849      13.54195714
W        1.59323462       7.96617311      15.13512368
W        0.00000000       6.37293849      16.72824473
W        1.59323462       7.96617311      18.32140203
W        0.00000000       6.37293849      19.91456148
W        1.59323462       7.96617311      21.50772305
W       -0.00000000       6.37293849      23.10092020
W        1.59323462       7.96617311      24.69409247
W       -0.00000000       6.37293849      29.26158116
W        1.59323462       7.96617311      30.85475342
W        0.00000000       6.37293849      32.44795057
W        1.59323462       7.96617311      34.04111215
W        0.00000000       6.37293849      35.63427159
W        1.59323462       7.96617311      37.22742890
W        0.00000000       6.37293849      38.82054995
W        1.59323462       7.96617311      40.41371649
W        0.00000000       6.37293849      42.00693470
W        1.59323462       7.96617311      43.60014987
W        0.00000000       6.37293849      45.19334815
W        1.59323462       7.96617311      46.78653003
W       -0.00000000       6.37293849      48.37967167
W        1.59323462       7.96617311      49.97277387
W        0.00000000       6.37293849      51.56592719
W        1.59323462       7.96617311      53.15910086
W        3.18646924       0.00000000       0.79657277
W        4.77970386       1.59323462       2.38974643
W        3.18646924      -0.00000000       3.98289976
W        4.77970386       1.59323462       5.57600196
W        3.18646924       0.00000000       7.16914360
W        4.77970386       1.59323462       8.76232548
W        3.18646924       0.00000000      10.35552376
W        4.77970386       1.59323462      11.94873892
W        3.18646924       0.00000000      13.54195714
W        4.77970386       1.59323462      15.13512368
W        3.18646924       0.00000000      16.72824473
W        4.77970386       1.59323462      18.32140203
W        3.18646924      -0.00000000      19.91456148
W        4.77970386       1.59323462      21.50772305
W        3.18646924       0.00000000      23.10092020
W        4.77970386       1.59323462      24.69409247
W        3.18646924       0.00000000      29.26158116
W        4.77970386       1.59323462      30.85475342
W        3.18646924      -0.00000000      32.44795057
W        4.77970386       1.59323462      34.04111215
W        3.18646924       0.00000000      35.63427159
W        4.77970386       1.59323462      37.22742890
W        3.18646924       0.00000000      38.82054995
W        4.77970386       1.59323462      40.41371649
W        3.18646924       0.00000000      42.00693470
W        4.77970386       1.59323462      43.60014987
W        3.18646924      -0.00000000      45.19334815
W        4.77970386       1.59323462      46.78653003
W        3.18646924       0.00000000      48.37967167
W        4.77970386       1.59323462      49.97277387
W        3.18646924       0.00000000      51.56592719
W        4.77970386       1.59323462      53.15910086
W        3.18646924       3.18646924       0.79657277
W        4.77970386       4.77970386       2.38974643
W        3.18646924       3.18646924       3.98289976
W        4.77970386       4.77970386       5.57600196
W        3.18646924       3.18646924       7.16914360
W        4.77970386       4.77970386       8.76232548
W        3.18646924       3.18646924      10.35552376
W        4.77970386       4.77970386      11.94873892
W        3.18646924       3.18646924      13.54195714
W        4.77970386       4.77970386      15.13512368
W        3.18646924       3.18646924      16.72824473
W        4.77970386       4.77970386      18.32140203
W        3.18646924       3.18646924      19.91456148
W        4.77970386       4.77970386      21.50772305
W        3.18646924       3.18646924      23.10092020
W        4.77970386       4.77970386      24.69409247
W        3.18646924       3.18646924      29.26158116
W        4.77970386       4.77970386      30.85475342
W        3.18646924       3.18646924      32.44795057
W        4.77970386       4.77970386      34.04111215
W        3.18646924       3.18646924      35.63427159
W        4.77970386       4.77970386      37.22742890
W        3.18646924       3.18646924      38.82054995
W        4.77970386       4.77970386      40.41371649
W        3.18646924       3.18646924      42.00693470
W        4.77970386       4.77970386      43.60014987
W        3.18646924       3.18646924      45.19334815
W        4.77970386       4.77970386      46.78653003
W        3.18646924       3.18646924      48.37967167
W        4.77970386       4.77970386      49.97277387
W        3.18646924       3.18646924      51.56592719
W        4.77970386       4.77970386      53.15910086
W        3.18646924       6.37293849       0.79657277
W        4.77970386       7.96617311       2.38974643
W        3.18646924       6.37293849       3.98289976
W        4.77970386       7.96617311       5.57600196
W        3.18646924       6.37293849       7.16914360
W        4.77970386       7.96617311       8.76232548
W        3.18646924       6.37293849      10.35552376
W        4.77970386       7.96617311      11.94873892
W        3.18646924       6.37293849      13.54195714
W        4.77970386       7.96617311      15.13512368
W        3.18646924       6.37293849      16.72824473
W        4.77970386       7.96617311      18.32140203
W        3.18646924       6.37293849      19.91456148
W        4.77970386       7.96617311      21.50772305
W        3.18646924       6.37293849      23.10092020
W        4.77970386       7.96617311      24.69409247
W        3.18646924       6.37293849      29.26158116
W        4.77970386       7.96617311      30.85475342
W        3.18646924       6.37293849      32.44795057
W        4.77970386       7.96617311      34.04111215
W        3.18646924       6.37293849      35.63427159
W        4.77970386       7.96617311      37.22742890
W        3.18646924       6.37293849      38.82054995
W        4.77970386       7.96617311      40.41371649
W        3.18646924       6.37293849      42.00693470
W        4.77970386       7.96617311      43.60014987
W        3.18646924       6.37293849      45.19334815
W        4.77970386       7.96617311      46.78653003
W        3.18646924       6.37293849      48.37967167
W        4.77970386       7.96617311      49.97277387
W        3.18646924       6.37293849      51.56592719
W        4.77970386       7.96617311      53.15910086
W        6.37293849       0.00000000       0.79657277
W        7.96617311       1.59323462       2.38974643
W        6.37293849       0.00000000       3.98289976
W        7.96617311       1.59323462       5.57600196
W        6.37293849       0.00000000       7.16914360
W        7.96617311       1.59323462       8.76232548
W        6.37293849      -0.00000000      10.35552376
W        7.96617311       1.59323462      11.94873892
W        6.37293849       0.00000000      13.54195714
W        7.96617311       1.59323462      15.13512368
W        6.37293849      -0.00000000      16.72824473
W        7.96617311       1.59323462      18.32140203
W        6.37293849       0.00000000      19.91456148
W        7.96617311       1.59323462      21.50772305
W        6.37293849       0.00000000      23.10092020
W        7.96617311       1.59323462      24.69409247
W        6.37293849       0.00000000      29.26158116
W        7.96617311       1.59323462      30.85475342
W        6.37293849       0.00000000      32.44795057
W        7.96617311       1.59323462      34.04111215
W        6.37293849      -0.00000000      35.63427159
W        7.96617311       1.59323462      37.22742890
W        6.37293849       0.00000000      38.82054995
W        7.96617311       1.59323462      40.41371649
W        6.37293849      -0.00000000      42.00693470
W        7.96617311       1.59323462      43.60014987
W        6.37293849       0.00000000      45.19334815
W        7.96617311       1.59323462      46.78653003
W        6.37293849       0.00000000      48.37967167
W        7.96617311       1.59323462      49.97277387
W        6.37293849      -0.00000000      51.56592719
W        7.96617311       1.59323462      53.15910086
W        6.37293849       3.18646924       0.79657277
W        7.96617311       4.77970386       2.38974643
W        6.37293849       3.18646924       3.98289976
W        7.96617311       4.77970386       5.57600196
W        6.37293849       3.18646924       7.16914360
W        7.96617311       4.77970386       8.76232548
W        6.37293849       3.18646924      10.35552376
W        7.96617311       4.77970386      11.94873892
W        6.37293849       3.18646924      13.54195714
W        7.96617311       4.77970386      15.13512368
W        6.37293849       3.18646924      16.72824473
W        7.96617311       4.77970386      18.32140203
W        6.37293849       3.18646924      19.91456148
W        7.96617311       4.77970386      21.50772305
W        6.37293849       3.18646924      23.10092020
W        7.96617311       4.77970386      24.69409247
W        6.37293849       3.18646924      29.26158116
W        7.96617311       4.77970386      30.85475342
W        6.37293849       3.18646924      32.44795057
W        7.96617311       4.77970386      34.04111215
W        6.37293849       3.18646924      35.63427159
W        7.96617311       4.77970386      37.22742890
W        6.37293849       3.18646924      38.82054995
W        7.96617311       4.77970386      40.41371649
W        6.37293849       3.18646924      42.00693470
W        7.96617311       4.77970386      43.60014987
W        6.37293849       3.18646924      45.19334815
W        7.96617311       4.77970386      46.78653003
W        6.37293849       3.18646924      48.37967167
W        7.96617311       4.77970386      49.97277387
W        6.37293849       3.18646924      51.56592719
W        7.96617311       4.77970386      53.15910086
W        6.37293849       6.37293849       0.79657277
W        7.96617311       7.96617311       2.38974643
W        6.37293849       6.37293849       3.98289976
W        7.96617311       7.96617311       5.57600196
W        6.37293849       6.37293849       7.16914360
W        7.96617311       7.96617311       8.76232548
W        6.37293849       6.37293849      10.35552376
W        7.96617311       7.96617311      11.94873892
W        6.37293849       6.37293849      13.54195714
W        7.96617311       7.96617311      15.13512368
W        6.37293849       6.37293849      16.72824473
W        7.96617311       7.96617311      18.32140203
W        6.37293849       6.37293849      19.91456148
W        7.96617311       7.96617311      21.50772305
W        6.37293849       6.37293849      23.10092020
W        7.96617311       7.96617311      24.69409247
W        6.37293849       6.37293849      29.26158116
W        7.96617311       7.96617311      30.85475342
W        6.37293849       6.37293849      32.44795057
W        7.96617311       7.96617311      34.04111215
W        6.37293849       6.37293849      35.63427159
W        7.96617311       7.96617311      37.22742890
W        6.37293849       6.37293849      38.82054995
W        7.96617311       7.96617311      40.41371649
W        6.37293849       6.37293849      42.00693470
W        7.96617311       7.96617311      43.60014987
W        6.37293849       6.37293849      45.19334815
W        7.96617311       7.96617311      46.78653003
W        6.37293849       6.37293849      48.37967167
W        7.96617311       7.96617311      49.97277387
W        6.37293849       6.37293849      51.56592719
W        7.96617311       7.96617311      53.15910086
288
Lattice="9.559407728649656 -9.087318898702386e-18 2.3918883122634095e-17 -9.087318898702381e-18 9.559407728649656 -2.3057458068536844e-17 1.2294658829237918e-16 -1.138024128057971e-16 54.05823773105372" Properties=species:S:1:pos:R:3 vacuum_gap_Ang=3.0769230769230766 frame_index=30 pbc="T T T"
W       -0.00000000       0.00000000       0.79657277
W        1.59323462       1.59323462       2.38974643
W       -0.00000000       0.00000000       3.98289976
W        1.59323462       1.59323462       5.57600196
W       -0.00000000       0.00000000       7.16914360
W        1.59323462       1.59323462       8.76232548
W        0.00000000      -0.00000000      10.35552376
W        1.59323462       1.59323462      11.94873892
W       -0.00000000       0.00000000      13.54195714
W        1.59323462       1.59323462      15.13512368
W        0.00000000       0.00000000      16.72824473
W        1.59323462       1.59323462      18.32140203
W        0.00000000       0.00000000      19.91456148
W        1.59323462       1.59323462      21.50772305
W        0.00000000       0.00000000      23.10092020
W        1.59323462       1.59323462      24.69409247
W       -0.00000000       0.00000000      29.36414527
W        1.59323462       1.59323462      30.95731753
W       -0.00000000       0.00000000      32.55051468
W        1.59323462       1.59323462      34.14367625
W        0.00000000      -0.00000000      35.73683570
W        1.59323462       1.59323462      37.32999300
W        0.00000000      -0.00000000      38.92311405
W        1.59323462       1.59323462      40.51628059
W       -0.00000000      -0.00000000      42.10949881
W        1.59323462       1.59323462      43.70271397
W        0.00000000      -0.00000000      45.29591225
W        1.59323462       1.59323462      46.88909413
W        0.00000000      -0.00000000      48.48223577
W        1.59323462       1.59323462      50.07533797
W        0.00000000       0.00000000      51.66849130
W        1.59323462       1.59323462      53.26166496
W        0.00000000       3.18646924       0.79657277
W        1.59323462       4.77970386       2.38974643
W        0.00000000       3.18646924       3.98289976
W        1.59323462       4.77970386       5.57600196
W       -0.00000000       3.18646924       7.16914360
W        1.59323462       4.77970386       8.76232548
W       -0.00000000       3.18646924      10.35552376
W        1.59323462       4.77970386      11.94873892
W       -0.00000000       3.18646924      13.54195714
W        1.59323462       4.77970386      15.13512368
W        0.00000000       3.18646924      16.72824473
W        1.59323462       4.77970386      18.32140203
W       -0.00000000       3.18646924      19.91456148
W        1.59323462       4.77970386      21.50772305
W        0.00000000       3.18646924      23.10092020
W        1.59323462       4.77970386      24.69409247
W        0.00000000       3.18646924      29.36414527
W        1.59323462       4.77970386      30.95731753
W       -0.00000000       3.18646924      32.55051468
W        1.59323462       4.77970386      34.14367625
W        0.00000000       3.18646924      35.73683570
W        1.59323462       4.77970386      37.32999300
W       -0.00000000       3.18646924      38.92311405
W        1.59323462       4.77970386      40.51628059
W        0.00000000       3.18646924      42.10949881
W        1.59323462       4.77970386      43.70271397
W       -0.00000000       3.18646924      45.29591225
W        1.59323462       4.77970386      46.88909413
W       -0.00000000       3.18646924      48.48223577
W        1.59323462       4.77970386      50.07533797
W        0.00000000       3.18646924      51.66849130
W        1.59323462       4.77970386      53.26166496
W       -0.00000000       6.37293849       0.79657277
W        1.59323462       7.96617311       2.38974643
W        0.00000000       6.37293849       3.98289976
W        1.59323462       7.96617311       5.57600196
W       -0.00000000       6.37293849       7.16914360
W        1.59323462       7.96617311       8.76232548
W        0.00000000       6.37293849      10.35552376
W        1.59323462       7.96617311      11.94873892
W       -0.00000000       6.37293849      13.54195714
W        1.59323462       7.96617311      15.13512368
W        0.00000000       6.37293849      16.72824473
W        1.59323462       7.96617311      18.32140203
W        0.00000000       6.37293849      19.91456148
W        1.59323462       7.96617311      21.50772305
W       -0.00000000       6.37293849      23.10092020
W        1.59323462       7.96617311      24.69409247
W       -0.00000000       6.37293849      29.36414527
W        1.59323462       7.96617311      30.95731753
W        0.00000000       6.37293849      32.55051468
W        1.59323462       7.96617311      34.14367625
W        0.00000000       6.37293849      35.73683570
W        1.59323462       7.96617311      37.32999300
W        0.00000000       6.37293849      38.92311405
W        1.59323462       7.96617311      40.51628059
W        0.00000000       6.37293849      42.10949881
W        1.59323462       7.96617311      43.70271397
W        0.00000000       6.37293849      45.29591225
W        1.59323462       7.96617311      46.88909413
W       -0.00000000       6.37293849      48.48223577
W        1.59323462       7.96617311      50.07533797
W        0.00000000       6.37293849      51.66849130
W        1.59323462       7.96617311      53.26166496
W        3.18646924       0.00000000       0.79657277
W        4.77970386       1.59323462       2.38974643
W        3.18646924      -0.00000000       3.98289976
W        4.77970386       1.59323462       5.57600196
W        3.18646924       0.00000000       7.16914360
W        4.77970386       1.59323462       8.76232548
W        3.18646924       0.00000000      10.35552376
W        4.77970386       1.59323462      11.94873892
W        3.18646924       0.00000000      13.54195714
W        4.77970386       1.59323462      15.13512368
W        3.18646924       0.00000000      16.72824473
W        4.77970386       1.59323462      18.32140203
W        3.18646924      -0.00000000      19.91456148
W        4.77970386       1.59323462      21.50772305
W        3.18646924       0.00000000      23.10092020
W        4.77970386       1.59323462      24.69409247
W        3.18646924       0.00000000      29.36414527
W        4.77970386       1.59323462      30.95731753
W        3.18646924      -0.00000000      32.55051468
W        4.77970386       1.59323462      34.14367625
W        3.18646924       0.00000000      35.73683570
W        4.77970386       1.59323462      37.32999300
W        3.18646924       0.00000000      38.92311405
W        4.77970386       1.59323462      40.51628059
W        3.18646924       0.00000000      42.10949881
W        4.77970386       1.59323462      43.70271397
W        3.18646924      -0.00000000      45.29591225
W        4.77970386       1.59323462      46.88909413
W        3.18646924       0.00000000      48.48223577
W        4.77970386       1.59323462      50.07533797
W        3.18646924       0.00000000      51.66849130
W        4.77970386       1.59323462      53.26166496
W        3.18646924       3.18646924       0.79657277
W        4.77970386       4.77970386       2.38974643
W        3.18646924       3.18646924       3.98289976
W        4.77970386       4.77970386       5.57600196
W        3.18646924       3.18646924       7.16914360
W        4.77970386       4.77970386       8.76232548
W        3.18646924       3.18646924      10.35552376
W        4.77970386       4.77970386      11.94873892
W        3.18646924       3.18646924      13.54195714
W        4.77970386       4.77970386      15.13512368
W        3.18646924       3.18646924      16.72824473
W        4.77970386       4.77970386      18.32140203
W        3.18646924       3.18646924      19.91456148
W        4.77970386       4.77970386      21.50772305
W        3.18646924       3.18646924      23.10092020
W        4.77970386       4.77970386      24.69409247
W        3.18646924       3.18646924      29.36414527
W        4.77970386       4.77970386      30.95731753
W        3.18646924       3.18646924      32.55051468
W        4.77970386       4.77970386      34.14367625
W        3.18646924       3.18646924      35.73683570
W        4.77970386       4.77970386      37.32999300
W        3.18646924       3.18646924      38.92311405
W        4.77970386       4.77970386      40.51628059
W        3.18646924       3.18646924      42.10949881
W        4.77970386       4.77970386      43.70271397
W        3.18646924       3.18646924      45.29591225
W        4.77970386       4.77970386      46.88909413
W        3.18646924       3.18646924      48.48223577
W        4.77970386       4.77970386      50.07533797
W        3.18646924       3.18646924      51.66849130
W        4.77970386       4.77970386      53.26166496
W        3.18646924       6.37293849       0.79657277
W        4.77970386       7.96617311       2.38974643
W        3.18646924       6.37293849       3.98289976
W        4.77970386       7.96617311       5.57600196
W        3.18646924       6.37293849       7.16914360
W        4.77970386       7.96617311       8.76232548
W        3.18646924       6.37293849      10.35552376
W        4.77970386       7.96617311      11.94873892
W        3.18646924       6.37293849      13.54195714
W        4.77970386       7.96617311      15.13512368
W        3.18646924       6.37293849      16.72824473
W        4.77970386       7.96617311      18.32140203
W        3.18646924       6.37293849      19.91456148
W        4.77970386       7.96617311      21.50772305
W        3.18646924       6.37293849      23.10092020
W        4.77970386       7.96617311      24.69409247
W        3.18646924       6.37293849      29.36414527
W        4.77970386       7.96617311      30.95731753
W        3.18646924       6.37293849      32.55051468
W        4.77970386       7.96617311      34.14367625
W        3.18646924       6.37293849      35.73683570
W        4.77970386       7.96617311      37.32999300
W        3.18646924       6.37293849      38.92311405
W        4.77970386       7.96617311      40.51628059
W        3.18646924       6.37293849      42.10949881
W        4.77970386       7.96617311      43.70271397
W        3.18646924       6.37293849      45.29591225
W        4.77970386       7.96617311      46.88909413
W        3.18646924       6.37293849      48.48223577
W        4.77970386       7.96617311      50.07533797
W        3.18646924       6.37293849      51.66849130
W        4.77970386       7.96617311      53.26166496
W        6.37293849       0.00000000       0.79657277
W        7.96617311       1.59323462       2.38974643
W        6.37293849       0.00000000       3.98289976
W        7.96617311       1.59323462       5.57600196
W        6.37293849       0.00000000       7.16914360
W        7.96617311       1.59323462       8.76232548
W        6.37293849      -0.00000000      10.35552376
W        7.96617311       1.59323462      11.94873892
W        6.37293849       0.00000000      13.54195714
W        7.96617311       1.59323462      15.13512368
W        6.37293849      -0.00000000      16.72824473
W        7.96617311       1.59323462      18.32140203
W        6.37293849       0.00000000      19.91456148
W        7.96617311       1.59323462      21.50772305
W        6.37293849       0.00000000      23.10092020
W        7.96617311       1.59323462      24.69409247
W        6.37293849       0.00000000      29.36414527
W        7.96617311       1.59323462      30.95731753
W        6.37293849       0.00000000      32.55051468
W        7.96617311       1.59323462      34.14367625
W        6.37293849      -0.00000000      35.73683570
W        7.96617311       1.59323462      37.32999300
W        6.37293849       0.00000000      38.92311405
W        7.96617311       1.59323462      40.51628059
W        6.37293849      -0.00000000      42.10949881
W        7.96617311       1.59323462      43.70271397
W        6.37293849       0.00000000      45.29591225
W        7.96617311       1.59323462      46.88909413
W        6.37293849       0.00000000      48.48223577
W        7.96617311       1.59323462      50.07533797
W        6.37293849      -0.00000000      51.66849130
W        7.96617311       1.59323462      53.26166496
W        6.37293849       3.18646924       0.79657277
W        7.96617311       4.77970386       2.38974643
W        6.37293849       3.18646924       3.98289976
W        7.96617311       4.77970386       5.57600196
W        6.37293849       3.18646924       7.16914360
W        7.96617311       4.77970386       8.76232548
W        6.37293849       3.18646924      10.35552376
W        7.96617311       4.77970386      11.94873892
W        6.37293849       3.18646924      13.54195714
W        7.96617311       4.77970386      15.13512368
W        6.37293849       3.18646924      16.72824473
W        7.96617311       4.77970386      18.32140203
W        6.37293849       3.18646924      19.91456148
W        7.96617311       4.77970386      21.50772305
W        6.37293849       3.18646924      23.10092020
W        7.96617311       4.77970386      24.69409247
W        6.37293849       3.18646924      29.36414527
W        7.96617311       4.77970386      30.95731753
W        6.37293849       3.18646924      32.55051468
W        7.96617311       4.77970386      34.14367625
W        6.37293849       3.18646924      35.73683570
W        7.96617311       4.77970386      37.32999300
W        6.37293849       3.18646924      38.92311405
W        7.96617311       4.77970386      40.51628059
W        6.37293849       3.18646924      42.10949881
W        7.96617311       4.77970386      43.70271397
W        6.37293849       3.18646924      45.29591225
W        7.96617311       4.77970386      46.88909413
W        6.37293849       3.18646924      48.48223577
W        7.96617311       4.77970386      50.07533797
W        6.37293849       3.18646924      51.66849130
W        7.96617311       4.77970386      53.26166496
W        6.37293849       6.37293849       0.79657277
W        7.96617311       7.96617311       2.38974643
W        6.37293849       6.37293849       3.98289976
W        7.96617311       7.96617311       5.57600196
W        6.37293849       6.37293849       7.16914360
W        7.96617311       7.96617311       8.76232548
W        6.37293849       6.37293849      10.35552376
W        7.96617311       7.96617311      11.94873892
W        6.37293849       6.37293849      13.54195714
W        7.96617311       7.96617311      15.13512368
W        6.37293849       6.37293849      16.72824473
W        7.96617311       7.96617311      18.32140203
W        6.37293849       6.37293849      19.91456148
W        7.96617311       7.96617311      21.50772305
W        6.37293849       6.37293849      23.10092020
W        7.96617311       7.96617311      24.69409247
W        6.37293849       6.37293849      29.36414527
W        7.96617311       7.96617311      30.95731753
W        6.37293849       6.37293849      32.55051468
W        7.96617311       7.96617311      34.14367625
W        6.37293849       6.37293849      35.73683570
W        7.96617311       7.96617311      37.32999300
W        6.37293849       6.37293849      38.92311405
W        7.96617311       7.96617311      40.51628059
W        6.37293849       6.37293849      42.10949881
W        7.96617311       7.96617311      43.70271397
W        6.37293849       6.37293849      45.29591225
W        7.96617311       7.96617311      46.88909413
W        6.37293849       6.37293849      48.48223577
W        7.96617311       7.96617311      50.07533797
W        6.37293849       6.37293849      51.66849130
W        7.96617311       7.96617311      53.26166496
288
Lattice="9.559407728649656 -9.087318898702386e-18 2.3918883122634095e-17 -9.087318898702381e-18 9.559407728649656 -2.3057458068536844e-17 1.2294658829237918e-16 -1.138024128057971e-16 54.16080183361783" Properties=species:S:1:pos:R:3 vacuum_gap_Ang=3.1794871794871793 frame_index=31 pbc="T T T"
W       -0.00000000       0.00000000       0.79657277
W        1.59323462       1.59323462       2.38974643
W       -0.00000000       0.00000000       3.98289976
W        1.59323462       1.59323462       5.57600196
W       -0.00000000       0.00000000       7.16914360
W        1.59323462       1.59323462       8.76232548
W        0.00000000      -0.00000000      10.35552376
W        1.59323462       1.59323462      11.94873892
W       -0.00000000       0.00000000      13.54195714
W        1.59323462       1.59323462      15.13512368
W        0.00000000       0.00000000      16.72824473
W        1.59323462       1.59323462      18.32140203
W        0.00000000       0.00000000      19.91456148
W        1.59323462       1.59323462      21.50772305
W        0.00000000       0.00000000      23.10092020
W        1.59323462       1.59323462      24.69409247
W       -0.00000000       0.00000000      29.46670937
W        1.59323462       1.59323462      31.05988163
W       -0.00000000       0.00000000      32.65307878
W        1.59323462       1.59323462      34.24624035
W        0.00000000      -0.00000000      35.83939980
W        1.59323462       1.59323462      37.43255711
W        0.00000000      -0.00000000      39.02567815
W        1.59323462       1.59323462      40.61884470
W       -0.00000000      -0.00000000      42.21206291
W        1.59323462       1.59323462      43.80527808
W        0.00000000      -0.00000000      45.39847635
W        1.59323462       1.59323462      46.99165824
W        0.00000000      -0.00000000      48.58479987
W        1.59323462       1.59323462      50.17790208
W        0.00000000       0.00000000      51.77105540
W        1.59323462       1.59323462      53.36422907
W        0.00000000       3.18646924       0.79657277
W        1.59323462       4.77970386       2.38974643
W        0.00000000       3.18646924       3.98289976
W        1.59323462       4.77970386       5.57600196
W       -0.00000000       3.18646924       7.16914360
W        1.59323462       4.77970386       8.76232548
W       -0.00000000       3.18646924      10.35552376
W        1.59323462       4.77970386      11.94873892
W       -0.00000000       3.18646924      13.54195714
W        1.59323462       4.77970386      15.13512368
W        0.00000000       3.18646924      16.72824473
W        1.59323462       4.77970386      18.32140203
W       -0.00000000       3.18646924      19.91456148
W        1.59323462       4.77970386      21.50772305
W        0.00000000       3.18646924      23.10092020
W        1.59323462       4.77970386      24.69409247
W        0.00000000       3.18646924      29.46670937
W        1.59323462       4.77970386      31.05988163
W       -0.00000000       3.18646924      32.65307878
W        1.59323462       4.77970386      34.24624035
W        0.00000000       3.18646924      35.83939980
W        1.59323462       4.77970386      37.43255711
W       -0.00000000       3.18646924      39.02567815
W        1.59323462       4.77970386      40.61884470
W        0.00000000       3.18646924      42.21206291
W        1.59323462       4.77970386      43.80527808
W       -0.00000000       3.18646924      45.39847635
W        1.59323462       4.77970386      46.99165824
W       -0.00000000       3.18646924      48.58479987
W        1.59323462       4.77970386      50.17790208
W        0.00000000       3.18646924      51.77105540
W        1.59323462       4.77970386      53.36422907
W       -0.00000000       6.37293849       0.79657277
W        1.59323462       7.96617311       2.38974643
W        0.00000000       6.37293849       3.98289976
W        1.59323462       7.96617311       5.57600196
W       -0.00000000       6.37293849       7.16914360
W        1.59323462       7.96617311       8.76232548
W        0.00000000       6.37293849      10.35552376
W        1.59323462       7.96617311      11.94873892
W       -0.00000000       6.37293849      13.54195714
W        1.59323462       7.96617311      15.13512368
W        0.00000000       6.37293849      16.72824473
W        1.59323462       7.96617311      18.32140203
W        0.00000000       6.37293849      19.91456148
W        1.59323462       7.96617311      21.50772305
W       -0.00000000       6.37293849      23.10092020
W        1.59323462       7.96617311      24.69409247
W       -0.00000000       6.37293849      29.46670937
W        1.59323462       7.96617311      31.05988163
W        0.00000000       6.37293849      32.65307878
W        1.59323462       7.96617311      34.24624035
W        0.00000000       6.37293849      35.83939980
W        1.59323462       7.96617311      37.43255711
W        0.00000000       6.37293849      39.02567815
W        1.59323462       7.96617311      40.61884470
W        0.00000000       6.37293849      42.21206291
W        1.59323462       7.96617311      43.80527808
W        0.00000000       6.37293849      45.39847635
W        1.59323462       7.96617311      46.99165824
W       -0.00000000       6.37293849      48.58479987
W        1.59323462       7.96617311      50.17790208
W        0.00000000       6.37293849      51.77105540
W        1.59323462       7.96617311      53.36422907
W        3.18646924       0.00000000       0.79657277
W        4.77970386       1.59323462       2.38974643
W        3.18646924      -0.00000000       3.98289976
W        4.77970386       1.59323462       5.57600196
W        3.18646924       0.00000000       7.16914360
W        4.77970386       1.59323462       8.76232548
W        3.18646924       0.00000000      10.35552376
W        4.77970386       1.59323462      11.94873892
W        3.18646924       0.00000000      13.54195714
W        4.77970386       1.59323462      15.13512368
W        3.18646924       0.00000000      16.72824473
W        4.77970386       1.59323462      18.32140203
W        3.18646924      -0.00000000      19.91456148
W        4.77970386       1.59323462      21.50772305
W        3.18646924       0.00000000      23.10092020
W        4.77970386       1.59323462      24.69409247
W        3.18646924       0.00000000      29.46670937
W        4.77970386       1.59323462      31.05988163
W        3.18646924      -0.00000000      32.65307878
W        4.77970386       1.59323462      34.24624035
W        3.18646924       0.00000000      35.83939980
W        4.77970386       1.59323462      37.43255711
W        3.18646924       0.00000000      39.02567815
W        4.77970386       1.59323462      40.61884470
W        3.18646924       0.00000000      42.21206291
W        4.77970386       1.59323462      43.80527808
W        3.18646924      -0.00000000      45.39847635
W        4.77970386       1.59323462      46.99165824
W        3.18646924       0.00000000      48.58479987
W        4.77970386       1.59323462      50.17790208
W        3.18646924       0.00000000      51.77105540
W        4.77970386       1.59323462      53.36422907
W        3.18646924       3.18646924       0.79657277
W        4.77970386       4.77970386       2.38974643
W        3.18646924       3.18646924       3.98289976
W        4.77970386       4.77970386       5.57600196
W        3.18646924       3.18646924       7.16914360
W        4.77970386       4.77970386       8.76232548
W        3.18646924       3.18646924      10.35552376
W        4.77970386       4.77970386      11.94873892
W        3.18646924       3.18646924      13.54195714
W        4.77970386       4.77970386      15.13512368
W        3.18646924       3.18646924      16.72824473
W        4.77970386       4.77970386      18.32140203
W        3.18646924       3.18646924      19.91456148
W        4.77970386       4.77970386      21.50772305
W        3.18646924       3.18646924      23.10092020
W        4.77970386       4.77970386      24.69409247
W        3.18646924       3.18646924      29.46670937
W        4.77970386       4.77970386      31.05988163
W        3.18646924       3.18646924      32.65307878
W        4.77970386       4.77970386      34.24624035
W        3.18646924       3.18646924      35.83939980
W        4.77970386       4.77970386      37.43255711
W        3.18646924       3.18646924      39.02567815
W        4.77970386       4.77970386      40.61884470
W        3.18646924       3.18646924      42.21206291
W        4.77970386       4.77970386      43.80527808
W        3.18646924       3.18646924      45.39847635
W        4.77970386       4.77970386      46.99165824
W        3.18646924       3.18646924      48.58479987
W        4.77970386       4.77970386      50.17790208
W        3.18646924       3.18646924      51.77105540
W        4.77970386       4.77970386      53.36422907
W        3.18646924       6.37293849       0.79657277
W        4.77970386       7.96617311       2.38974643
W        3.18646924       6.37293849       3.98289976
W        4.77970386       7.96617311       5.57600196
W        3.18646924       6.37293849       7.16914360
W        4.77970386       7.96617311       8.76232548
W        3.18646924       6.37293849      10.35552376
W        4.77970386       7.96617311      11.94873892
W        3.18646924       6.37293849      13.54195714
W        4.77970386       7.96617311      15.13512368
W        3.18646924       6.37293849      16.72824473
W        4.77970386       7.96617311      18.32140203
W        3.18646924       6.37293849      19.91456148
W        4.77970386       7.96617311      21.50772305
W        3.18646924       6.37293849      23.10092020
W        4.77970386       7.96617311      24.69409247
W        3.18646924       6.37293849      29.46670937
W        4.77970386       7.96617311      31.05988163
W        3.18646924       6.37293849      32.65307878
W        4.77970386       7.96617311      34.24624035
W        3.18646924       6.37293849      35.83939980
W        4.77970386       7.96617311      37.43255711
W        3.18646924       6.37293849      39.02567815
W        4.77970386       7.96617311      40.61884470
W        3.18646924       6.37293849      42.21206291
W        4.77970386       7.96617311      43.80527808
W        3.18646924       6.37293849      45.39847635
W        4.77970386       7.96617311      46.99165824
W        3.18646924       6.37293849      48.58479987
W        4.77970386       7.96617311      50.17790208
W        3.18646924       6.37293849      51.77105540
W        4.77970386       7.96617311      53.36422907
W        6.37293849       0.00000000       0.79657277
W        7.96617311       1.59323462       2.38974643
W        6.37293849       0.00000000       3.98289976
W        7.96617311       1.59323462       5.57600196
W        6.37293849       0.00000000       7.16914360
W        7.96617311       1.59323462       8.76232548
W        6.37293849      -0.00000000      10.35552376
W        7.96617311       1.59323462      11.94873892
W        6.37293849       0.00000000      13.54195714
W        7.96617311       1.59323462      15.13512368
W        6.37293849      -0.00000000      16.72824473
W        7.96617311       1.59323462      18.32140203
W        6.37293849       0.00000000      19.91456148
W        7.96617311       1.59323462      21.50772305
W        6.37293849       0.00000000      23.10092020
W        7.96617311       1.59323462      24.69409247
W        6.37293849       0.00000000      29.46670937
W        7.96617311       1.59323462      31.05988163
W        6.37293849       0.00000000      32.65307878
W        7.96617311       1.59323462      34.24624035
W        6.37293849      -0.00000000      35.83939980
W        7.96617311       1.59323462      37.43255711
W        6.37293849       0.00000000      39.02567815
W        7.96617311       1.59323462      40.61884470
W        6.37293849      -0.00000000      42.21206291
W        7.96617311       1.59323462      43.80527808
W        6.37293849       0.00000000      45.39847635
W        7.96617311       1.59323462      46.99165824
W        6.37293849       0.00000000      48.58479987
W        7.96617311       1.59323462      50.17790208
W        6.37293849      -0.00000000      51.77105540
W        7.96617311       1.59323462      53.36422907
W        6.37293849       3.18646924       0.79657277
W        7.96617311       4.77970386       2.38974643
W        6.37293849       3.18646924       3.98289976
W        7.96617311       4.77970386       5.57600196
W        6.37293849       3.18646924       7.16914360
W        7.96617311       4.77970386       8.76232548
W        6.37293849       3.18646924      10.35552376
W        7.96617311       4.77970386      11.94873892
W        6.37293849       3.18646924      13.54195714
W        7.96617311       4.77970386      15.13512368
W        6.37293849       3.18646924      16.72824473
W        7.96617311       4.77970386      18.32140203
W        6.37293849       3.18646924      19.91456148
W        7.96617311       4.77970386      21.50772305
W        6.37293849       3.18646924      23.10092020
W        7.96617311       4.77970386      24.69409247
W        6.37293849       3.18646924      29.46670937
W        7.96617311       4.77970386      31.05988163
W        6.37293849       3.18646924      32.65307878
W        7.96617311       4.77970386      34.24624035
W        6.37293849       3.18646924      35.83939980
W        7.96617311       4.77970386      37.43255711
W        6.37293849       3.18646924      39.02567815
W        7.96617311       4.77970386      40.61884470
W        6.37293849       3.18646924      42.21206291
W        7.96617311       4.77970386      43.80527808
W        6.37293849       3.18646924      45.39847635
W        7.96617311       4.77970386      46.99165824
W        6.37293849       3.18646924      48.58479987
W        7.96617311       4.77970386      50.17790208
W        6.37293849       3.18646924      51.77105540
W        7.96617311       4.77970386      53.36422907
W        6.37293849       6.37293849       0.79657277
W        7.96617311       7.96617311       2.38974643
W        6.37293849       6.37293849       3.98289976
W        7.96617311       7.96617311       5.57600196
W        6.37293849       6.37293849       7.16914360
W        7.96617311       7.96617311       8.76232548
W        6.37293849       6.37293849      10.35552376
W        7.96617311       7.96617311      11.94873892
W        6.37293849       6.37293849      13.54195714
W        7.96617311       7.96617311      15.13512368
W        6.37293849       6.37293849      16.72824473
W        7.96617311       7.96617311      18.32140203
W        6.37293849       6.37293849      19.91456148
W        7.96617311       7.96617311      21.50772305
W        6.37293849       6.37293849      23.10092020
W        7.96617311       7.96617311      24.69409247
W        6.37293849       6.37293849      29.46670937
W        7.96617311       7.96617311      31.05988163
W        6.37293849       6.37293849      32.65307878
W        7.96617311       7.96617311      34.24624035
W        6.37293849       6.37293849      35.83939980
W        7.96617311       7.96617311      37.43255711
W        6.37293849       6.37293849      39.02567815
W        7.96617311       7.96617311      40.61884470
W        6.37293849       6.37293849      42.21206291
W        7.96617311       7.96617311      43.80527808
W        6.37293849       6.37293849      45.39847635
W        7.96617311       7.96617311      46.99165824
W        6.37293849       6.37293849      48.58479987
W        7.96617311       7.96617311      50.17790208
W        6.37293849       6.37293849      51.77105540
W        7.96617311       7.96617311      53.36422907
288
Lattice="9.559407728649656 -9.087318898702386e-18 2.3918883122634095e-17 -9.087318898702381e-18 9.559407728649656 -2.3057458068536844e-17 1.2294658829237918e-16 -1.138024128057971e-16 54.263365936181934" Properties=species:S:1:pos:R:3 vacuum_gap_Ang=3.282051282051282 frame_index=32 pbc="T T T"
W       -0.00000000       0.00000000       0.79657277
W        1.59323462       1.59323462       2.38974643
W       -0.00000000       0.00000000       3.98289976
W        1.59323462       1.59323462       5.57600196
W       -0.00000000       0.00000000       7.16914360
W        1.59323462       1.59323462       8.76232548
W        0.00000000      -0.00000000      10.35552376
W        1.59323462       1.59323462      11.94873892
W       -0.00000000       0.00000000      13.54195714
W        1.59323462       1.59323462      15.13512368
W        0.00000000       0.00000000      16.72824473
W        1.59323462       1.59323462      18.32140203
W        0.00000000       0.00000000      19.91456148
W        1.59323462       1.59323462      21.50772305
W        0.00000000       0.00000000      23.10092020
W        1.59323462       1.59323462      24.69409247
W       -0.00000000       0.00000000      29.56927347
W        1.59323462       1.59323462      31.16244573
W       -0.00000000       0.00000000      32.75564288
W        1.59323462       1.59323462      34.34880445
W        0.00000000      -0.00000000      35.94196390
W        1.59323462       1.59323462      37.53512121
W        0.00000000      -0.00000000      39.12824226
W        1.59323462       1.59323462      40.72140880
W       -0.00000000      -0.00000000      42.31462701
W        1.59323462       1.59323462      43.90784218
W        0.00000000      -0.00000000      45.50104046
W        1.59323462       1.59323462      47.09422234
W        0.00000000      -0.00000000      48.68736398
W        1.59323462       1.59323462      50.28046618
W        0.00000000       0.00000000      51.87361950
W        1.59323462       1.59323462      53.46679317
W        0.00000000       3.18646924       0.79657277
W        1.59323462       4.77970386       2.38974643
W        0.00000000       3.18646924       3.98289976
W        1.59323462       4.77970386       5.57600196
W       -0.00000000       3.18646924       7.16914360
W        1.59323462       4.77970386       8.76232548
W       -0.00000000       3.18646924      10.35552376
W        1.59323462       4.77970386      11.94873892
W       -0.00000000       3.18646924      13.54195714
W        1.59323462       4.77970386      15.13512368
W        0.00000000       3.18646924      16.72824473
W        1.59323462       4.77970386      18.32140203
W       -0.00000000       3.18646924      19.91456148
W        1.59323462       4.77970386      21.50772305
W        0.00000000       3.18646924      23.10092020
W        1.59323462       4.77970386      24.69409247
W        0.00000000       3.18646924      29.56927347
W        1.59323462       4.77970386      31.16244573
W       -0.00000000       3.18646924      32.75564288
W        1.59323462       4.77970386      34.34880445
W        0.00000000       3.18646924      35.94196390
W        1.59323462       4.77970386      37.53512121
W       -0.00000000       3.18646924      39.12824226
W        1.59323462       4.77970386      40.72140880
W        0.00000000       3.18646924      42.31462701
W        1.59323462       4.77970386      43.90784218
W       -0.00000000       3.18646924      45.50104046
W        1.59323462       4.77970386      47.09422234
W       -0.00000000       3.18646924      48.68736398
W        1.59323462       4.77970386      50.28046618
W        0.00000000       3.18646924      51.87361950
W        1.59323462       4.77970386      53.46679317
W       -0.00000000       6.37293849       0.79657277
W        1.59323462       7.96617311       2.38974643
W        0.00000000       6.37293849       3.98289976
W        1.59323462       7.96617311       5.57600196
W       -0.00000000       6.37293849       7.16914360
W        1.59323462       7.96617311       8.76232548
W        0.00000000       6.37293849      10.35552376
W        1.59323462       7.96617311      11.94873892
W       -0.00000000       6.37293849      13.54195714
W        1.59323462       7.96617311      15.13512368
W        0.00000000       6.37293849      16.72824473
W        1.59323462       7.96617311      18.32140203
W        0.00000000       6.37293849      19.91456148
W        1.59323462       7.96617311      21.50772305
W       -0.00000000       6.37293849      23.10092020
W        1.59323462       7.96617311      24.69409247
W       -0.00000000       6.37293849      29.56927347
W        1.59323462       7.96617311      31.16244573
W        0.00000000       6.37293849      32.75564288
W        1.59323462       7.96617311      34.34880445
W        0.00000000       6.37293849      35.94196390
W        1.59323462       7.96617311      37.53512121
W        0.00000000       6.37293849      39.12824226
W        1.59323462       7.96617311      40.72140880
W        0.00000000       6.37293849      42.31462701
W        1.59323462       7.96617311      43.90784218
W        0.00000000       6.37293849      45.50104046
W        1.59323462       7.96617311      47.09422234
W       -0.00000000       6.37293849      48.68736398
W        1.59323462       7.96617311      50.28046618
W        0.00000000       6.37293849      51.87361950
W        1.59323462       7.96617311      53.46679317
W        3.18646924       0.00000000       0.79657277
W        4.77970386       1.59323462       2.38974643
W        3.18646924      -0.00000000       3.98289976
W        4.77970386       1.59323462       5.57600196
W        3.18646924       0.00000000       7.16914360
W        4.77970386       1.59323462       8.76232548
W        3.18646924       0.00000000      10.35552376
W        4.77970386       1.59323462      11.94873892
W        3.18646924       0.00000000      13.54195714
W        4.77970386       1.59323462      15.13512368
W        3.18646924       0.00000000      16.72824473
W        4.77970386       1.59323462      18.32140203
W        3.18646924      -0.00000000      19.91456148
W        4.77970386       1.59323462      21.50772305
W        3.18646924       0.00000000      23.10092020
W        4.77970386       1.59323462      24.69409247
W        3.18646924       0.00000000      29.56927347
W        4.77970386       1.59323462      31.16244573
W        3.18646924      -0.00000000      32.75564288
W        4.77970386       1.59323462      34.34880445
W        3.18646924       0.00000000      35.94196390
W        4.77970386       1.59323462      37.53512121
W        3.18646924       0.00000000      39.12824226
W        4.77970386       1.59323462      40.72140880
W        3.18646924       0.00000000      42.31462701
W        4.77970386       1.59323462      43.90784218
W        3.18646924      -0.00000000      45.50104046
W        4.77970386       1.59323462      47.09422234
W        3.18646924       0.00000000      48.68736398
W        4.77970386       1.59323462      50.28046618
W        3.18646924       0.00000000      51.87361950
W        4.77970386       1.59323462      53.46679317
W        3.18646924       3.18646924       0.79657277
W        4.77970386       4.77970386       2.38974643
W        3.18646924       3.18646924       3.98289976
W        4.77970386       4.77970386       5.57600196
W        3.18646924       3.18646924       7.16914360
W        4.77970386       4.77970386       8.76232548
W        3.18646924       3.18646924      10.35552376
W        4.77970386       4.77970386      11.94873892
W        3.18646924       3.18646924      13.54195714
W        4.77970386       4.77970386      15.13512368
W        3.18646924       3.18646924      16.72824473
W        4.77970386       4.77970386      18.32140203
W        3.18646924       3.18646924      19.91456148
W        4.77970386       4.77970386      21.50772305
W        3.18646924       3.18646924      23.10092020
W        4.77970386       4.77970386      24.69409247
W        3.18646924       3.18646924      29.56927347
W        4.77970386       4.77970386      31.16244573
W        3.18646924       3.18646924      32.75564288
W        4.77970386       4.77970386      34.34880445
W        3.18646924       3.18646924      35.94196390
W        4.77970386       4.77970386      37.53512121
W        3.18646924       3.18646924      39.12824226
W        4.77970386       4.77970386      40.72140880
W        3.18646924       3.18646924      42.31462701
W        4.77970386       4.77970386      43.90784218
W        3.18646924       3.18646924      45.50104046
W        4.77970386       4.77970386      47.09422234
W        3.18646924       3.18646924      48.68736398
W        4.77970386       4.77970386      50.28046618
W        3.18646924       3.18646924      51.87361950
W        4.77970386       4.77970386      53.46679317
W        3.18646924       6.37293849       0.79657277
W        4.77970386       7.96617311       2.38974643
W        3.18646924       6.37293849       3.98289976
W        4.77970386       7.96617311       5.57600196
W        3.18646924       6.37293849       7.16914360
W        4.77970386       7.96617311       8.76232548
W        3.18646924       6.37293849      10.35552376
W        4.77970386       7.96617311      11.94873892
W        3.18646924       6.37293849      13.54195714
W        4.77970386       7.96617311      15.13512368
W        3.18646924       6.37293849      16.72824473
W        4.77970386       7.96617311      18.32140203
W        3.18646924       6.37293849      19.91456148
W        4.77970386       7.96617311      21.50772305
W        3.18646924       6.37293849      23.10092020
W        4.77970386       7.96617311      24.69409247
W        3.18646924       6.37293849      29.56927347
W        4.77970386       7.96617311      31.16244573
W        3.18646924       6.37293849      32.75564288
W        4.77970386       7.96617311      34.34880445
W        3.18646924       6.37293849      35.94196390
W        4.77970386       7.96617311      37.53512121
W        3.18646924       6.37293849      39.12824226
W        4.77970386       7.96617311      40.72140880
W        3.18646924       6.37293849      42.31462701
W        4.77970386       7.96617311      43.90784218
W        3.18646924       6.37293849      45.50104046
W        4.77970386       7.96617311      47.09422234
W        3.18646924       6.37293849      48.68736398
W        4.77970386       7.96617311      50.28046618
W        3.18646924       6.37293849      51.87361950
W        4.77970386       7.96617311      53.46679317
W        6.37293849       0.00000000       0.79657277
W        7.96617311       1.59323462       2.38974643
W        6.37293849       0.00000000       3.98289976
W        7.96617311       1.59323462       5.57600196
W        6.37293849       0.00000000       7.16914360
W        7.96617311       1.59323462       8.76232548
W        6.37293849      -0.00000000      10.35552376
W        7.96617311       1.59323462      11.94873892
W        6.37293849       0.00000000      13.54195714
W        7.96617311       1.59323462      15.13512368
W        6.37293849      -0.00000000      16.72824473
W        7.96617311       1.59323462      18.32140203
W        6.37293849       0.00000000      19.91456148
W        7.96617311       1.59323462      21.50772305
W        6.37293849       0.00000000      23.10092020
W        7.96617311       1.59323462      24.69409247
W        6.37293849       0.00000000      29.56927347
W        7.96617311       1.59323462      31.16244573
W        6.37293849       0.00000000      32.75564288
W        7.96617311       1.59323462      34.34880445
W        6.37293849      -0.00000000      35.94196390
W        7.96617311       1.59323462      37.53512121
W        6.37293849       0.00000000      39.12824226
W        7.96617311       1.59323462      40.72140880
W        6.37293849      -0.00000000      42.31462701
W        7.96617311       1.59323462      43.90784218
W        6.37293849       0.00000000      45.50104046
W        7.96617311       1.59323462      47.09422234
W        6.37293849       0.00000000      48.68736398
W        7.96617311       1.59323462      50.28046618
W        6.37293849      -0.00000000      51.87361950
W        7.96617311       1.59323462      53.46679317
W        6.37293849       3.18646924       0.79657277
W        7.96617311       4.77970386       2.38974643
W        6.37293849       3.18646924       3.98289976
W        7.96617311       4.77970386       5.57600196
W        6.37293849       3.18646924       7.16914360
W        7.96617311       4.77970386       8.76232548
W        6.37293849       3.18646924      10.35552376
W        7.96617311       4.77970386      11.94873892
W        6.37293849       3.18646924      13.54195714
W        7.96617311       4.77970386      15.13512368
W        6.37293849       3.18646924      16.72824473
W        7.96617311       4.77970386      18.32140203
W        6.37293849       3.18646924      19.91456148
W        7.96617311       4.77970386      21.50772305
W        6.37293849       3.18646924      23.10092020
W        7.96617311       4.77970386      24.69409247
W        6.37293849       3.18646924      29.56927347
W        7.96617311       4.77970386      31.16244573
W        6.37293849       3.18646924      32.75564288
W        7.96617311       4.77970386      34.34880445
W        6.37293849       3.18646924      35.94196390
W        7.96617311       4.77970386      37.53512121
W        6.37293849       3.18646924      39.12824226
W        7.96617311       4.77970386      40.72140880
W        6.37293849       3.18646924      42.31462701
W        7.96617311       4.77970386      43.90784218
W        6.37293849       3.18646924      45.50104046
W        7.96617311       4.77970386      47.09422234
W        6.37293849       3.18646924      48.68736398
W        7.96617311       4.77970386      50.28046618
W        6.37293849       3.18646924      51.87361950
W        7.96617311       4.77970386      53.46679317
W        6.37293849       6.37293849       0.79657277
W        7.96617311       7.96617311       2.38974643
W        6.37293849       6.37293849       3.98289976
W        7.96617311       7.96617311       5.57600196
W        6.37293849       6.37293849       7.16914360
W        7.96617311       7.96617311       8.76232548
W        6.37293849       6.37293849      10.35552376
W        7.96617311       7.96617311      11.94873892
W        6.37293849       6.37293849      13.54195714
W        7.96617311       7.96617311      15.13512368
W        6.37293849       6.37293849      16.72824473
W        7.96617311       7.96617311      18.32140203
W        6.37293849       6.37293849      19.91456148
W        7.96617311       7.96617311      21.50772305
W        6.37293849       6.37293849      23.10092020
W        7.96617311       7.96617311      24.69409247
W        6.37293849       6.37293849      29.56927347
W        7.96617311       7.96617311      31.16244573
W        6.37293849       6.37293849      32.75564288
W        7.96617311       7.96617311      34.34880445
W        6.37293849       6.37293849      35.94196390
W        7.96617311       7.96617311      37.53512121
W        6.37293849       6.37293849      39.12824226
W        7.96617311       7.96617311      40.72140880
W        6.37293849       6.37293849      42.31462701
W        7.96617311       7.96617311      43.90784218
W        6.37293849       6.37293849      45.50104046
W        7.96617311       7.96617311      47.09422234
W        6.37293849       6.37293849      48.68736398
W        7.96617311       7.96617311      50.28046618
W        6.37293849       6.37293849      51.87361950
W        7.96617311       7.96617311      53.46679317
288
Lattice="9.559407728649656 -9.087318898702386e-18 2.3918883122634095e-17 -9.087318898702381e-18 9.559407728649656 -2.3057458068536844e-17 1.2294658829237918e-16 -1.138024128057971e-16 54.365930038746036" Properties=species:S:1:pos:R:3 vacuum_gap_Ang=3.3846153846153846 frame_index=33 pbc="T T T"
W       -0.00000000       0.00000000       0.79657277
W        1.59323462       1.59323462       2.38974643
W       -0.00000000       0.00000000       3.98289976
W        1.59323462       1.59323462       5.57600196
W       -0.00000000       0.00000000       7.16914360
W        1.59323462       1.59323462       8.76232548
W        0.00000000      -0.00000000      10.35552376
W        1.59323462       1.59323462      11.94873892
W       -0.00000000       0.00000000      13.54195714
W        1.59323462       1.59323462      15.13512368
W        0.00000000       0.00000000      16.72824473
W        1.59323462       1.59323462      18.32140203
W        0.00000000       0.00000000      19.91456148
W        1.59323462       1.59323462      21.50772305
W        0.00000000       0.00000000      23.10092020
W        1.59323462       1.59323462      24.69409247
W       -0.00000000       0.00000000      29.67183757
W        1.59323462       1.59323462      31.26500983
W       -0.00000000       0.00000000      32.85820698
W        1.59323462       1.59323462      34.45136856
W        0.00000000      -0.00000000      36.04452800
W        1.59323462       1.59323462      37.63768531
W        0.00000000      -0.00000000      39.23080636
W        1.59323462       1.59323462      40.82397290
W       -0.00000000      -0.00000000      42.41719111
W        1.59323462       1.59323462      44.01040628
W        0.00000000      -0.00000000      45.60360456
W        1.59323462       1.59323462      47.19678644
W        0.00000000      -0.00000000      48.78992808
W        1.59323462       1.59323462      50.38303028
W        0.00000000       0.00000000      51.97618360
W        1.59323462       1.59323462      53.56935727
W        0.00000000       3.18646924       0.79657277
W        1.59323462       4.77970386       2.38974643
W        0.00000000       3.18646924       3.98289976
W        1.59323462       4.77970386       5.57600196
W       -0.00000000       3.18646924       7.16914360
W        1.59323462       4.77970386       8.76232548
W       -0.00000000       3.18646924      10.35552376
W        1.59323462       4.77970386      11.94873892
W       -0.00000000       3.18646924      13.54195714
W        1.59323462       4.77970386      15.13512368
W        0.00000000       3.18646924      16.72824473
W        1.59323462       4.77970386      18.32140203
W       -0.00000000       3.18646924      19.91456148
W        1.59323462       4.77970386      21.50772305
W        0.00000000       3.18646924      23.10092020
W        1.59323462       4.77970386      24.69409247
W        0.00000000       3.18646924      29.67183757
W        1.59323462       4.77970386      31.26500983
W       -0.00000000       3.18646924      32.85820698
W        1.59323462       4.77970386      34.45136856
W        0.00000000       3.18646924      36.04452800
W        1.59323462       4.77970386      37.63768531
W       -0.00000000       3.18646924      39.23080636
W        1.59323462       4.77970386      40.82397290
W        0.00000000       3.18646924      42.41719111
W        1.59323462       4.77970386      44.01040628
W       -0.00000000       3.18646924      45.60360456
W        1.59323462       4.77970386      47.19678644
W       -0.00000000       3.18646924      48.78992808
W        1.59323462       4.77970386      50.38303028
W        0.00000000       3.18646924      51.97618360
W        1.59323462       4.77970386      53.56935727
W       -0.00000000       6.37293849       0.79657277
W        1.59323462       7.96617311       2.38974643
W        0.00000000       6.37293849       3.98289976
W        1.59323462       7.96617311       5.57600196
W       -0.00000000       6.37293849       7.16914360
W        1.59323462       7.96617311       8.76232548
W        0.00000000       6.37293849      10.35552376
W        1.59323462       7.96617311      11.94873892
W       -0.00000000       6.37293849      13.54195714
W        1.59323462       7.96617311      15.13512368
W        0.00000000       6.37293849      16.72824473
W        1.59323462       7.96617311      18.32140203
W        0.00000000       6.37293849      19.91456148
W        1.59323462       7.96617311      21.50772305
W       -0.00000000       6.37293849      23.10092020
W        1.59323462       7.96617311      24.69409247
W       -0.00000000       6.37293849      29.67183757
W        1.59323462       7.96617311      31.26500983
W        0.00000000       6.37293849      32.85820698
W        1.59323462       7.96617311      34.45136856
W        0.00000000       6.37293849      36.04452800
W        1.59323462       7.96617311      37.63768531
W        0.00000000       6.37293849      39.23080636
W        1.59323462       7.96617311      40.82397290
W        0.00000000       6.37293849      42.41719111
W        1.59323462       7.96617311      44.01040628
W        0.00000000       6.37293849      45.60360456
W        1.59323462       7.96617311      47.19678644
W       -0.00000000       6.37293849      48.78992808
W        1.59323462       7.96617311      50.38303028
W        0.00000000       6.37293849      51.97618360
W        1.59323462       7.96617311      53.56935727
W        3.18646924       0.00000000       0.79657277
W        4.77970386       1.59323462       2.38974643
W        3.18646924      -0.00000000       3.98289976
W        4.77970386       1.59323462       5.57600196
W        3.18646924       0.00000000       7.16914360
W        4.77970386       1.59323462       8.76232548
W        3.18646924       0.00000000      10.35552376
W        4.77970386       1.59323462      11.94873892
W        3.18646924       0.00000000      13.54195714
W        4.77970386       1.59323462      15.13512368
W        3.18646924       0.00000000      16.72824473
W        4.77970386       1.59323462      18.32140203
W        3.18646924      -0.00000000      19.91456148
W        4.77970386       1.59323462      21.50772305
W        3.18646924       0.00000000      23.10092020
W        4.77970386       1.59323462      24.69409247
W        3.18646924       0.00000000      29.67183757
W        4.77970386       1.59323462      31.26500983
W        3.18646924      -0.00000000      32.85820698
W        4.77970386       1.59323462      34.45136856
W        3.18646924       0.00000000      36.04452800
W        4.77970386       1.59323462      37.63768531
W        3.18646924       0.00000000      39.23080636
W        4.77970386       1.59323462      40.82397290
W        3.18646924       0.00000000      42.41719111
W        4.77970386       1.59323462      44.01040628
W        3.18646924      -0.00000000      45.60360456
W        4.77970386       1.59323462      47.19678644
W        3.18646924       0.00000000      48.78992808
W        4.77970386       1.59323462      50.38303028
W        3.18646924       0.00000000      51.97618360
W        4.77970386       1.59323462      53.56935727
W        3.18646924       3.18646924       0.79657277
W        4.77970386       4.77970386       2.38974643
W        3.18646924       3.18646924       3.98289976
W        4.77970386       4.77970386       5.57600196
W        3.18646924       3.18646924       7.16914360
W        4.77970386       4.77970386       8.76232548
W        3.18646924       3.18646924      10.35552376
W        4.77970386       4.77970386      11.94873892
W        3.18646924       3.18646924      13.54195714
W        4.77970386       4.77970386      15.13512368
W        3.18646924       3.18646924      16.72824473
W        4.77970386       4.77970386      18.32140203
W        3.18646924       3.18646924      19.91456148
W        4.77970386       4.77970386      21.50772305
W        3.18646924       3.18646924      23.10092020
W        4.77970386       4.77970386      24.69409247
W        3.18646924       3.18646924      29.67183757
W        4.77970386       4.77970386      31.26500983
W        3.18646924       3.18646924      32.85820698
W        4.77970386       4.77970386      34.45136856
W        3.18646924       3.18646924      36.04452800
W        4.77970386       4.77970386      37.63768531
W        3.18646924       3.18646924      39.23080636
W        4.77970386       4.77970386      40.82397290
W        3.18646924       3.18646924      42.41719111
W        4.77970386       4.77970386      44.01040628
W        3.18646924       3.18646924      45.60360456
W        4.77970386       4.77970386      47.19678644
W        3.18646924       3.18646924      48.78992808
W        4.77970386       4.77970386      50.38303028
W        3.18646924       3.18646924      51.97618360
W        4.77970386       4.77970386      53.56935727
W        3.18646924       6.37293849       0.79657277
W        4.77970386       7.96617311       2.38974643
W        3.18646924       6.37293849       3.98289976
W        4.77970386       7.96617311       5.57600196
W        3.18646924       6.37293849       7.16914360
W        4.77970386       7.96617311       8.76232548
W        3.18646924       6.37293849      10.35552376
W        4.77970386       7.96617311      11.94873892
W        3.18646924       6.37293849      13.54195714
W        4.77970386       7.96617311      15.13512368
W        3.18646924       6.37293849      16.72824473
W        4.77970386       7.96617311      18.32140203
W        3.18646924       6.37293849      19.91456148
W        4.77970386       7.96617311      21.50772305
W        3.18646924       6.37293849      23.10092020
W        4.77970386       7.96617311      24.69409247
W        3.18646924       6.37293849      29.67183757
W        4.77970386       7.96617311      31.26500983
W        3.18646924       6.37293849      32.85820698
W        4.77970386       7.96617311      34.45136856
W        3.18646924       6.37293849      36.04452800
W        4.77970386       7.96617311      37.63768531
W        3.18646924       6.37293849      39.23080636
W        4.77970386       7.96617311      40.82397290
W        3.18646924       6.37293849      42.41719111
W        4.77970386       7.96617311      44.01040628
W        3.18646924       6.37293849      45.60360456
W        4.77970386       7.96617311      47.19678644
W        3.18646924       6.37293849      48.78992808
W        4.77970386       7.96617311      50.38303028
W        3.18646924       6.37293849      51.97618360
W        4.77970386       7.96617311      53.56935727
W        6.37293849       0.00000000       0.79657277
W        7.96617311       1.59323462       2.38974643
W        6.37293849       0.00000000       3.98289976
W        7.96617311       1.59323462       5.57600196
W        6.37293849       0.00000000       7.16914360
W        7.96617311       1.59323462       8.76232548
W        6.37293849      -0.00000000      10.35552376
W        7.96617311       1.59323462      11.94873892
W        6.37293849       0.00000000      13.54195714
W        7.96617311       1.59323462      15.13512368
W        6.37293849      -0.00000000      16.72824473
W        7.96617311       1.59323462      18.32140203
W        6.37293849       0.00000000      19.91456148
W        7.96617311       1.59323462      21.50772305
W        6.37293849       0.00000000      23.10092020
W        7.96617311       1.59323462      24.69409247
W        6.37293849       0.00000000      29.67183757
W        7.96617311       1.59323462      31.26500983
W        6.37293849       0.00000000      32.85820698
W        7.96617311       1.59323462      34.45136856
W        6.37293849      -0.00000000      36.04452800
W        7.96617311       1.59323462      37.63768531
W        6.37293849       0.00000000      39.23080636
W        7.96617311       1.59323462      40.82397290
W        6.37293849      -0.00000000      42.41719111
W        7.96617311       1.59323462      44.01040628
W        6.37293849       0.00000000      45.60360456
W        7.96617311       1.59323462      47.19678644
W        6.37293849       0.00000000      48.78992808
W        7.96617311       1.59323462      50.38303028
W        6.37293849      -0.00000000      51.97618360
W        7.96617311       1.59323462      53.56935727
W        6.37293849       3.18646924       0.79657277
W        7.96617311       4.77970386       2.38974643
W        6.37293849       3.18646924       3.98289976
W        7.96617311       4.77970386       5.57600196
W        6.37293849       3.18646924       7.16914360
W        7.96617311       4.77970386       8.76232548
W        6.37293849       3.18646924      10.35552376
W        7.96617311       4.77970386      11.94873892
W        6.37293849       3.18646924      13.54195714
W        7.96617311       4.77970386      15.13512368
W        6.37293849       3.18646924      16.72824473
W        7.96617311       4.77970386      18.32140203
W        6.37293849       3.18646924      19.91456148
W        7.96617311       4.77970386      21.50772305
W        6.37293849       3.18646924      23.10092020
W        7.96617311       4.77970386      24.69409247
W        6.37293849       3.18646924      29.67183757
W        7.96617311       4.77970386      31.26500983
W        6.37293849       3.18646924      32.85820698
W        7.96617311       4.77970386      34.45136856
W        6.37293849       3.18646924      36.04452800
W        7.96617311       4.77970386      37.63768531
W        6.37293849       3.18646924      39.23080636
W        7.96617311       4.77970386      40.82397290
W        6.37293849       3.18646924      42.41719111
W        7.96617311       4.77970386      44.01040628
W        6.37293849       3.18646924      45.60360456
W        7.96617311       4.77970386      47.19678644
W        6.37293849       3.18646924      48.78992808
W        7.96617311       4.77970386      50.38303028
W        6.37293849       3.18646924      51.97618360
W        7.96617311       4.77970386      53.56935727
W        6.37293849       6.37293849       0.79657277
W        7.96617311       7.96617311       2.38974643
W        6.37293849       6.37293849       3.98289976
W        7.96617311       7.96617311       5.57600196
W        6.37293849       6.37293849       7.16914360
W        7.96617311       7.96617311       8.76232548
W        6.37293849       6.37293849      10.35552376
W        7.96617311       7.96617311      11.94873892
W        6.37293849       6.37293849      13.54195714
W        7.96617311       7.96617311      15.13512368
W        6.37293849       6.37293849      16.72824473
W        7.96617311       7.96617311      18.32140203
W        6.37293849       6.37293849      19.91456148
W        7.96617311       7.96617311      21.50772305
W        6.37293849       6.37293849      23.10092020
W        7.96617311       7.96617311      24.69409247
W        6.37293849       6.37293849      29.67183757
W        7.96617311       7.96617311      31.26500983
W        6.37293849       6.37293849      32.85820698
W        7.96617311       7.96617311      34.45136856
W        6.37293849       6.37293849      36.04452800
W        7.96617311       7.96617311      37.63768531
W        6.37293849       6.37293849      39.23080636
W        7.96617311       7.96617311      40.82397290
W        6.37293849       6.37293849      42.41719111
W        7.96617311       7.96617311      44.01040628
W        6.37293849       6.37293849      45.60360456
W        7.96617311       7.96617311      47.19678644
W        6.37293849       6.37293849      48.78992808
W        7.96617311       7.96617311      50.38303028
W        6.37293849       6.37293849      51.97618360
W        7.96617311       7.96617311      53.56935727
288
Lattice="9.559407728649656 -9.087318898702386e-18 2.3918883122634095e-17 -9.087318898702381e-18 9.559407728649656 -2.3057458068536844e-17 1.2294658829237918e-16 -1.138024128057971e-16 54.46849414131014" Properties=species:S:1:pos:R:3 vacuum_gap_Ang=3.4871794871794872 frame_index=34 pbc="T T T"
W       -0.00000000       0.00000000       0.79657277
W        1.59323462       1.59323462       2.38974643
W       -0.00000000       0.00000000       3.98289976
W        1.59323462       1.59323462       5.57600196
W       -0.00000000       0.00000000       7.16914360
W        1.59323462       1.59323462       8.76232548
W        0.00000000      -0.00000000      10.35552376
W        1.59323462       1.59323462      11.94873892
W       -0.00000000       0.00000000      13.54195714
W        1.59323462       1.59323462      15.13512368
W        0.00000000       0.00000000      16.72824473
W        1.59323462       1.59323462      18.32140203
W        0.00000000       0.00000000      19.91456148
W        1.59323462       1.59323462      21.50772305
W        0.00000000       0.00000000      23.10092020
W        1.59323462       1.59323462      24.69409247
W       -0.00000000       0.00000000      29.77440168
W        1.59323462       1.59323462      31.36757394
W       -0.00000000       0.00000000      32.96077109
W        1.59323462       1.59323462      34.55393266
W        0.00000000      -0.00000000      36.14709211
W        1.59323462       1.59323462      37.74024941
W        0.00000000      -0.00000000      39.33337046
W        1.59323462       1.59323462      40.92653700
W       -0.00000000      -0.00000000      42.51975522
W        1.59323462       1.59323462      44.11297038
W        0.00000000      -0.00000000      45.70616866
W        1.59323462       1.59323462      47.29935054
W        0.00000000      -0.00000000      48.89249218
W        1.59323462       1.59323462      50.48559438
W        0.00000000       0.00000000      52.07874771
W        1.59323462       1.59323462      53.67192137
W        0.00000000       3.18646924       0.79657277
W        1.59323462       4.77970386       2.38974643
W        0.00000000       3.18646924       3.98289976
W        1.59323462       4.77970386       5.57600196
W       -0.00000000       3.18646924       7.16914360
W        1.59323462       4.77970386       8.76232548
W       -0.00000000       3.18646924      10.35552376
W        1.59323462       4.77970386      11.94873892
W       -0.00000000       3.18646924      13.54195714
W        1.59323462       4.77970386      15.13512368
W        0.00000000       3.18646924      16.72824473
W        1.59323462       4.77970386      18.32140203
W       -0.00000000       3.18646924      19.91456148
W        1.59323462       4.77970386      21.50772305
W        0.00000000       3.18646924      23.10092020
W        1.59323462       4.77970386      24.69409247
W        0.00000000       3.18646924      29.77440168
W        1.59323462       4.77970386      31.36757394
W       -0.00000000       3.18646924      32.96077109
W        1.59323462       4.77970386      34.55393266
W        0.00000000       3.18646924      36.14709211
W        1.59323462       4.77970386      37.74024941
W       -0.00000000       3.18646924      39.33337046
W        1.59323462       4.77970386      40.92653700
W        0.00000000       3.18646924      42.51975522
W        1.59323462       4.77970386      44.11297038
W       -0.00000000       3.18646924      45.70616866
W        1.59323462       4.77970386      47.29935054
W       -0.00000000       3.18646924      48.89249218
W        1.59323462       4.77970386      50.48559438
W        0.00000000       3.18646924      52.07874771
W        1.59323462       4.77970386      53.67192137
W       -0.00000000       6.37293849       0.79657277
W        1.59323462       7.96617311       2.38974643
W        0.00000000       6.37293849       3.98289976
W        1.59323462       7.96617311       5.57600196
W       -0.00000000       6.37293849       7.16914360
W        1.59323462       7.96617311       8.76232548
W        0.00000000       6.37293849      10.35552376
W        1.59323462       7.96617311      11.94873892
W       -0.00000000       6.37293849      13.54195714
W        1.59323462       7.96617311      15.13512368
W        0.00000000       6.37293849      16.72824473
W        1.59323462       7.96617311      18.32140203
W        0.00000000       6.37293849      19.91456148
W        1.59323462       7.96617311      21.50772305
W       -0.00000000       6.37293849      23.10092020
W        1.59323462       7.96617311      24.69409247
W       -0.00000000       6.37293849      29.77440168
W        1.59323462       7.96617311      31.36757394
W        0.00000000       6.37293849      32.96077109
W        1.59323462       7.96617311      34.55393266
W        0.00000000       6.37293849      36.14709211
W        1.59323462       7.96617311      37.74024941
W        0.00000000       6.37293849      39.33337046
W        1.59323462       7.96617311      40.92653700
W        0.00000000       6.37293849      42.51975522
W        1.59323462       7.96617311      44.11297038
W        0.00000000       6.37293849      45.70616866
W        1.59323462       7.96617311      47.29935054
W       -0.00000000       6.37293849      48.89249218
W        1.59323462       7.96617311      50.48559438
W        0.00000000       6.37293849      52.07874771
W        1.59323462       7.96617311      53.67192137
W        3.18646924       0.00000000       0.79657277
W        4.77970386       1.59323462       2.38974643
W        3.18646924      -0.00000000       3.98289976
W        4.77970386       1.59323462       5.57600196
W        3.18646924       0.00000000       7.16914360
W        4.77970386       1.59323462       8.76232548
W        3.18646924       0.00000000      10.35552376
W        4.77970386       1.59323462      11.94873892
W        3.18646924       0.00000000      13.54195714
W        4.77970386       1.59323462      15.13512368
W        3.18646924       0.00000000      16.72824473
W        4.77970386       1.59323462      18.32140203
W        3.18646924      -0.00000000      19.91456148
W        4.77970386       1.59323462      21.50772305
W        3.18646924       0.00000000      23.10092020
W        4.77970386       1.59323462      24.69409247
W        3.18646924       0.00000000      29.77440168
W        4.77970386       1.59323462      31.36757394
W        3.18646924      -0.00000000      32.96077109
W        4.77970386       1.59323462      34.55393266
W        3.18646924       0.00000000      36.14709211
W        4.77970386       1.59323462      37.74024941
W        3.18646924       0.00000000      39.33337046
W        4.77970386       1.59323462      40.92653700
W        3.18646924       0.00000000      42.51975522
W        4.77970386       1.59323462      44.11297038
W        3.18646924      -0.00000000      45.70616866
W        4.77970386       1.59323462      47.29935054
W        3.18646924       0.00000000      48.89249218
W        4.77970386       1.59323462      50.48559438
W        3.18646924       0.00000000      52.07874771
W        4.77970386       1.59323462      53.67192137
W        3.18646924       3.18646924       0.79657277
W        4.77970386       4.77970386       2.38974643
W        3.18646924       3.18646924       3.98289976
W        4.77970386       4.77970386       5.57600196
W        3.18646924       3.18646924       7.16914360
W        4.77970386       4.77970386       8.76232548
W        3.18646924       3.18646924      10.35552376
W        4.77970386       4.77970386      11.94873892
W        3.18646924       3.18646924      13.54195714
W        4.77970386       4.77970386      15.13512368
W        3.18646924       3.18646924      16.72824473
W        4.77970386       4.77970386      18.32140203
W        3.18646924       3.18646924      19.91456148
W        4.77970386       4.77970386      21.50772305
W        3.18646924       3.18646924      23.10092020
W        4.77970386       4.77970386      24.69409247
W        3.18646924       3.18646924      29.77440168
W        4.77970386       4.77970386      31.36757394
W        3.18646924       3.18646924      32.96077109
W        4.77970386       4.77970386      34.55393266
W        3.18646924       3.18646924      36.14709211
W        4.77970386       4.77970386      37.74024941
W        3.18646924       3.18646924      39.33337046
W        4.77970386       4.77970386      40.92653700
W        3.18646924       3.18646924      42.51975522
W        4.77970386       4.77970386      44.11297038
W        3.18646924       3.18646924      45.70616866
W        4.77970386       4.77970386      47.29935054
W        3.18646924       3.18646924      48.89249218
W        4.77970386       4.77970386      50.48559438
W        3.18646924       3.18646924      52.07874771
W        4.77970386       4.77970386      53.67192137
W        3.18646924       6.37293849       0.79657277
W        4.77970386       7.96617311       2.38974643
W        3.18646924       6.37293849       3.98289976
W        4.77970386       7.96617311       5.57600196
W        3.18646924       6.37293849       7.16914360
W        4.77970386       7.96617311       8.76232548
W        3.18646924       6.37293849      10.35552376
W        4.77970386       7.96617311      11.94873892
W        3.18646924       6.37293849      13.54195714
W        4.77970386       7.96617311      15.13512368
W        3.18646924       6.37293849      16.72824473
W        4.77970386       7.96617311      18.32140203
W        3.18646924       6.37293849      19.91456148
W        4.77970386       7.96617311      21.50772305
W        3.18646924       6.37293849      23.10092020
W        4.77970386       7.96617311      24.69409247
W        3.18646924       6.37293849      29.77440168
W        4.77970386       7.96617311      31.36757394
W        3.18646924       6.37293849      32.96077109
W        4.77970386       7.96617311      34.55393266
W        3.18646924       6.37293849      36.14709211
W        4.77970386       7.96617311      37.74024941
W        3.18646924       6.37293849      39.33337046
W        4.77970386       7.96617311      40.92653700
W        3.18646924       6.37293849      42.51975522
W        4.77970386       7.96617311      44.11297038
W        3.18646924       6.37293849      45.70616866
W        4.77970386       7.96617311      47.29935054
W        3.18646924       6.37293849      48.89249218
W        4.77970386       7.96617311      50.48559438
W        3.18646924       6.37293849      52.07874771
W        4.77970386       7.96617311      53.67192137
W        6.37293849       0.00000000       0.79657277
W        7.96617311       1.59323462       2.38974643
W        6.37293849       0.00000000       3.98289976
W        7.96617311       1.59323462       5.57600196
W        6.37293849       0.00000000       7.16914360
W        7.96617311       1.59323462       8.76232548
W        6.37293849      -0.00000000      10.35552376
W        7.96617311       1.59323462      11.94873892
W        6.37293849       0.00000000      13.54195714
W        7.96617311       1.59323462      15.13512368
W        6.37293849      -0.00000000      16.72824473
W        7.96617311       1.59323462      18.32140203
W        6.37293849       0.00000000      19.91456148
W        7.96617311       1.59323462      21.50772305
W        6.37293849       0.00000000      23.10092020
W        7.96617311       1.59323462      24.69409247
W        6.37293849       0.00000000      29.77440168
W        7.96617311       1.59323462      31.36757394
W        6.37293849       0.00000000      32.96077109
W        7.96617311       1.59323462      34.55393266
W        6.37293849      -0.00000000      36.14709211
W        7.96617311       1.59323462      37.74024941
W        6.37293849       0.00000000      39.33337046
W        7.96617311       1.59323462      40.92653700
W        6.37293849      -0.00000000      42.51975522
W        7.96617311       1.59323462      44.11297038
W        6.37293849       0.00000000      45.70616866
W        7.96617311       1.59323462      47.29935054
W        6.37293849       0.00000000      48.89249218
W        7.96617311       1.59323462      50.48559438
W        6.37293849      -0.00000000      52.07874771
W        7.96617311       1.59323462      53.67192137
W        6.37293849       3.18646924       0.79657277
W        7.96617311       4.77970386       2.38974643
W        6.37293849       3.18646924       3.98289976
W        7.96617311       4.77970386       5.57600196
W        6.37293849       3.18646924       7.16914360
W        7.96617311       4.77970386       8.76232548
W        6.37293849       3.18646924      10.35552376
W        7.96617311       4.77970386      11.94873892
W        6.37293849       3.18646924      13.54195714
W        7.96617311       4.77970386      15.13512368
W        6.37293849       3.18646924      16.72824473
W        7.96617311       4.77970386      18.32140203
W        6.37293849       3.18646924      19.91456148
W        7.96617311       4.77970386      21.50772305
W        6.37293849       3.18646924      23.10092020
W        7.96617311       4.77970386      24.69409247
W        6.37293849       3.18646924      29.77440168
W        7.96617311       4.77970386      31.36757394
W        6.37293849       3.18646924      32.96077109
W        7.96617311       4.77970386      34.55393266
W        6.37293849       3.18646924      36.14709211
W        7.96617311       4.77970386      37.74024941
W        6.37293849       3.18646924      39.33337046
W        7.96617311       4.77970386      40.92653700
W        6.37293849       3.18646924      42.51975522
W        7.96617311       4.77970386      44.11297038
W        6.37293849       3.18646924      45.70616866
W        7.96617311       4.77970386      47.29935054
W        6.37293849       3.18646924      48.89249218
W        7.96617311       4.77970386      50.48559438
W        6.37293849       3.18646924      52.07874771
W        7.96617311       4.77970386      53.67192137
W        6.37293849       6.37293849       0.79657277
W        7.96617311       7.96617311       2.38974643
W        6.37293849       6.37293849       3.98289976
W        7.96617311       7.96617311       5.57600196
W        6.37293849       6.37293849       7.16914360
W        7.96617311       7.96617311       8.76232548
W        6.37293849       6.37293849      10.35552376
W        7.96617311       7.96617311      11.94873892
W        6.37293849       6.37293849      13.54195714
W        7.96617311       7.96617311      15.13512368
W        6.37293849       6.37293849      16.72824473
W        7.96617311       7.96617311      18.32140203
W        6.37293849       6.37293849      19.91456148
W        7.96617311       7.96617311      21.50772305
W        6.37293849       6.37293849      23.10092020
W        7.96617311       7.96617311      24.69409247
W        6.37293849       6.37293849      29.77440168
W        7.96617311       7.96617311      31.36757394
W        6.37293849       6.37293849      32.96077109
W        7.96617311       7.96617311      34.55393266
W        6.37293849       6.37293849      36.14709211
W        7.96617311       7.96617311      37.74024941
W        6.37293849       6.37293849      39.33337046
W        7.96617311       7.96617311      40.92653700
W        6.37293849       6.37293849      42.51975522
W        7.96617311       7.96617311      44.11297038
W        6.37293849       6.37293849      45.70616866
W        7.96617311       7.96617311      47.29935054
W        6.37293849       6.37293849      48.89249218
W        7.96617311       7.96617311      50.48559438
W        6.37293849       6.37293849      52.07874771
W        7.96617311       7.96617311      53.67192137
288
Lattice="9.559407728649656 -9.087318898702386e-18 2.3918883122634095e-17 -9.087318898702381e-18 9.559407728649656 -2.3057458068536844e-17 1.2294658829237918e-16 -1.138024128057971e-16 54.57105824387424" Properties=species:S:1:pos:R:3 vacuum_gap_Ang=3.5897435897435894 frame_index=35 pbc="T T T"
W       -0.00000000       0.00000000       0.79657277
W        1.59323462       1.59323462       2.38974643
W       -0.00000000       0.00000000       3.98289976
W        1.59323462       1.59323462       5.57600196
W       -0.00000000       0.00000000       7.16914360
W        1.59323462       1.59323462       8.76232548
W        0.00000000      -0.00000000      10.35552376
W        1.59323462       1.59323462      11.94873892
W       -0.00000000       0.00000000      13.54195714
W        1.59323462       1.59323462      15.13512368
W        0.00000000       0.00000000      16.72824473
W        1.59323462       1.59323462      18.32140203
W        0.00000000       0.00000000      19.91456148
W        1.59323462       1.59323462      21.50772305
W        0.00000000       0.00000000      23.10092020
W        1.59323462       1.59323462      24.69409247
W       -0.00000000       0.00000000      29.87696578
W        1.59323462       1.59323462      31.47013804
W       -0.00000000       0.00000000      33.06333519
W        1.59323462       1.59323462      34.65649676
W        0.00000000      -0.00000000      36.24965621
W        1.59323462       1.59323462      37.84281352
W        0.00000000      -0.00000000      39.43593457
W        1.59323462       1.59323462      41.02910111
W       -0.00000000      -0.00000000      42.62231932
W        1.59323462       1.59323462      44.21553449
W        0.00000000      -0.00000000      45.80873276
W        1.59323462       1.59323462      47.40191465
W        0.00000000      -0.00000000      48.99505629
W        1.59323462       1.59323462      50.58815849
W        0.00000000       0.00000000      52.18131181
W        1.59323462       1.59323462      53.77448548
W        0.00000000       3.18646924       0.79657277
W        1.59323462       4.77970386       2.38974643
W        0.00000000       3.18646924       3.98289976
W        1.59323462       4.77970386       5.57600196
W       -0.00000000       3.18646924       7.16914360
W        1.59323462       4.77970386       8.76232548
W       -0.00000000       3.18646924      10.35552376
W        1.59323462       4.77970386      11.94873892
W       -0.00000000       3.18646924      13.54195714
W        1.59323462       4.77970386      15.13512368
W        0.00000000       3.18646924      16.72824473
W        1.59323462       4.77970386      18.32140203
W       -0.00000000       3.18646924      19.91456148
W        1.59323462       4.77970386      21.50772305
W        0.00000000       3.18646924      23.10092020
W        1.59323462       4.77970386      24.69409247
W        0.00000000       3.18646924      29.87696578
W        1.59323462       4.77970386      31.47013804
W       -0.00000000       3.18646924      33.06333519
W        1.59323462       4.77970386      34.65649676
W        0.00000000       3.18646924      36.24965621
W        1.59323462       4.77970386      37.84281352
W       -0.00000000       3.18646924      39.43593457
W        1.59323462       4.77970386      41.02910111
W        0.00000000       3.18646924      42.62231932
W        1.59323462       4.77970386      44.21553449
W       -0.00000000       3.18646924      45.80873276
W        1.59323462       4.77970386      47.40191465
W       -0.00000000       3.18646924      48.99505629
W        1.59323462       4.77970386      50.58815849
W        0.00000000       3.18646924      52.18131181
W        1.59323462       4.77970386      53.77448548
W       -0.00000000       6.37293849       0.79657277
W        1.59323462       7.96617311       2.38974643
W        0.00000000       6.37293849       3.98289976
W        1.59323462       7.96617311       5.57600196
W       -0.00000000       6.37293849       7.16914360
W        1.59323462       7.96617311       8.76232548
W        0.00000000       6.37293849      10.35552376
W        1.59323462       7.96617311      11.94873892
W       -0.00000000       6.37293849      13.54195714
W        1.59323462       7.96617311      15.13512368
W        0.00000000       6.37293849      16.72824473
W        1.59323462       7.96617311      18.32140203
W        0.00000000       6.37293849      19.91456148
W        1.59323462       7.96617311      21.50772305
W       -0.00000000       6.37293849      23.10092020
W        1.59323462       7.96617311      24.69409247
W       -0.00000000       6.37293849      29.87696578
W        1.59323462       7.96617311      31.47013804
W        0.00000000       6.37293849      33.06333519
W        1.59323462       7.96617311      34.65649676
W        0.00000000       6.37293849      36.24965621
W        1.59323462       7.96617311      37.84281352
W        0.00000000       6.37293849      39.43593457
W        1.59323462       7.96617311      41.02910111
W        0.00000000       6.37293849      42.62231932
W        1.59323462       7.96617311      44.21553449
W        0.00000000       6.37293849      45.80873276
W        1.59323462       7.96617311      47.40191465
W       -0.00000000       6.37293849      48.99505629
W        1.59323462       7.96617311      50.58815849
W        0.00000000       6.37293849      52.18131181
W        1.59323462       7.96617311      53.77448548
W        3.18646924       0.00000000       0.79657277
W        4.77970386       1.59323462       2.38974643
W        3.18646924      -0.00000000       3.98289976
W        4.77970386       1.59323462       5.57600196
W        3.18646924       0.00000000       7.16914360
W        4.77970386       1.59323462       8.76232548
W        3.18646924       0.00000000      10.35552376
W        4.77970386       1.59323462      11.94873892
W        3.18646924       0.00000000      13.54195714
W        4.77970386       1.59323462      15.13512368
W        3.18646924       0.00000000      16.72824473
W        4.77970386       1.59323462      18.32140203
W        3.18646924      -0.00000000      19.91456148
W        4.77970386       1.59323462      21.50772305
W        3.18646924       0.00000000      23.10092020
W        4.77970386       1.59323462      24.69409247
W        3.18646924       0.00000000      29.87696578
W        4.77970386       1.59323462      31.47013804
W        3.18646924      -0.00000000      33.06333519
W        4.77970386       1.59323462      34.65649676
W        3.18646924       0.00000000      36.24965621
W        4.77970386       1.59323462      37.84281352
W        3.18646924       0.00000000      39.43593457
W        4.77970386       1.59323462      41.02910111
W        3.18646924       0.00000000      42.62231932
W        4.77970386       1.59323462      44.21553449
W        3.18646924      -0.00000000      45.80873276
W        4.77970386       1.59323462      47.40191465
W        3.18646924       0.00000000      48.99505629
W        4.77970386       1.59323462      50.58815849
W        3.18646924       0.00000000      52.18131181
W        4.77970386       1.59323462      53.77448548
W        3.18646924       3.18646924       0.79657277
W        4.77970386       4.77970386       2.38974643
W        3.18646924       3.18646924       3.98289976
W        4.77970386       4.77970386       5.57600196
W        3.18646924       3.18646924       7.16914360
W        4.77970386       4.77970386       8.76232548
W        3.18646924       3.18646924      10.35552376
W        4.77970386       4.77970386      11.94873892
W        3.18646924       3.18646924      13.54195714
W        4.77970386       4.77970386      15.13512368
W        3.18646924       3.18646924      16.72824473
W        4.77970386       4.77970386      18.32140203
W        3.18646924       3.18646924      19.91456148
W        4.77970386       4.77970386      21.50772305
W        3.18646924       3.18646924      23.10092020
W        4.77970386       4.77970386      24.69409247
W        3.18646924       3.18646924      29.87696578
W        4.77970386       4.77970386      31.47013804
W        3.18646924       3.18646924      33.06333519
W        4.77970386       4.77970386      34.65649676
W        3.18646924       3.18646924      36.24965621
W        4.77970386       4.77970386      37.84281352
W        3.18646924       3.18646924      39.43593457
W        4.77970386       4.77970386      41.02910111
W        3.18646924       3.18646924      42.62231932
W        4.77970386       4.77970386      44.21553449
W        3.18646924       3.18646924      45.80873276
W        4.77970386       4.77970386      47.40191465
W        3.18646924       3.18646924      48.99505629
W        4.77970386       4.77970386      50.58815849
W        3.18646924       3.18646924      52.18131181
W        4.77970386       4.77970386      53.77448548
W        3.18646924       6.37293849       0.79657277
W        4.77970386       7.96617311       2.38974643
W        3.18646924       6.37293849       3.98289976
W        4.77970386       7.96617311       5.57600196
W        3.18646924       6.37293849       7.16914360
W        4.77970386       7.96617311       8.76232548
W        3.18646924       6.37293849      10.35552376
W        4.77970386       7.96617311      11.94873892
W        3.18646924       6.37293849      13.54195714
W        4.77970386       7.96617311      15.13512368
W        3.18646924       6.37293849      16.72824473
W        4.77970386       7.96617311      18.32140203
W        3.18646924       6.37293849      19.91456148
W        4.77970386       7.96617311      21.50772305
W        3.18646924       6.37293849      23.10092020
W        4.77970386       7.96617311      24.69409247
W        3.18646924       6.37293849      29.87696578
W        4.77970386       7.96617311      31.47013804
W        3.18646924       6.37293849      33.06333519
W        4.77970386       7.96617311      34.65649676
W        3.18646924       6.37293849      36.24965621
W        4.77970386       7.96617311      37.84281352
W        3.18646924       6.37293849      39.43593457
W        4.77970386       7.96617311      41.02910111
W        3.18646924       6.37293849      42.62231932
W        4.77970386       7.96617311      44.21553449
W        3.18646924       6.37293849      45.80873276
W        4.77970386       7.96617311      47.40191465
W        3.18646924       6.37293849      48.99505629
W        4.77970386       7.96617311      50.58815849
W        3.18646924       6.37293849      52.18131181
W        4.77970386       7.96617311      53.77448548
W        6.37293849       0.00000000       0.79657277
W        7.96617311       1.59323462       2.38974643
W        6.37293849       0.00000000       3.98289976
W        7.96617311       1.59323462       5.57600196
W        6.37293849       0.00000000       7.16914360
W        7.96617311       1.59323462       8.76232548
W        6.37293849      -0.00000000      10.35552376
W        7.96617311       1.59323462      11.94873892
W        6.37293849       0.00000000      13.54195714
W        7.96617311       1.59323462      15.13512368
W        6.37293849      -0.00000000      16.72824473
W        7.96617311       1.59323462      18.32140203
W        6.37293849       0.00000000      19.91456148
W        7.96617311       1.59323462      21.50772305
W        6.37293849       0.00000000      23.10092020
W        7.96617311       1.59323462      24.69409247
W        6.37293849       0.00000000      29.87696578
W        7.96617311       1.59323462      31.47013804
W        6.37293849       0.00000000      33.06333519
W        7.96617311       1.59323462      34.65649676
W        6.37293849      -0.00000000      36.24965621
W        7.96617311       1.59323462      37.84281352
W        6.37293849       0.00000000      39.43593457
W        7.96617311       1.59323462      41.02910111
W        6.37293849      -0.00000000      42.62231932
W        7.96617311       1.59323462      44.21553449
W        6.37293849       0.00000000      45.80873276
W        7.96617311       1.59323462      47.40191465
W        6.37293849       0.00000000      48.99505629
W        7.96617311       1.59323462      50.58815849
W        6.37293849      -0.00000000      52.18131181
W        7.96617311       1.59323462      53.77448548
W        6.37293849       3.18646924       0.79657277
W        7.96617311       4.77970386       2.38974643
W        6.37293849       3.18646924       3.98289976
W        7.96617311       4.77970386       5.57600196
W        6.37293849       3.18646924       7.16914360
W        7.96617311       4.77970386       8.76232548
W        6.37293849       3.18646924      10.35552376
W        7.96617311       4.77970386      11.94873892
W        6.37293849       3.18646924      13.54195714
W        7.96617311       4.77970386      15.13512368
W        6.37293849       3.18646924      16.72824473
W        7.96617311       4.77970386      18.32140203
W        6.37293849       3.18646924      19.91456148
W        7.96617311       4.77970386      21.50772305
W        6.37293849       3.18646924      23.10092020
W        7.96617311       4.77970386      24.69409247
W        6.37293849       3.18646924      29.87696578
W        7.96617311       4.77970386      31.47013804
W        6.37293849       3.18646924      33.06333519
W        7.96617311       4.77970386      34.65649676
W        6.37293849       3.18646924      36.24965621
W        7.96617311       4.77970386      37.84281352
W        6.37293849       3.18646924      39.43593457
W        7.96617311       4.77970386      41.02910111
W        6.37293849       3.18646924      42.62231932
W        7.96617311       4.77970386      44.21553449
W        6.37293849       3.18646924      45.80873276
W        7.96617311       4.77970386      47.40191465
W        6.37293849       3.18646924      48.99505629
W        7.96617311       4.77970386      50.58815849
W        6.37293849       3.18646924      52.18131181
W        7.96617311       4.77970386      53.77448548
W        6.37293849       6.37293849       0.79657277
W        7.96617311       7.96617311       2.38974643
W        6.37293849       6.37293849       3.98289976
W        7.96617311       7.96617311       5.57600196
W        6.37293849       6.37293849       7.16914360
W        7.96617311       7.96617311       8.76232548
W        6.37293849       6.37293849      10.35552376
W        7.96617311       7.96617311      11.94873892
W        6.37293849       6.37293849      13.54195714
W        7.96617311       7.96617311      15.13512368
W        6.37293849       6.37293849      16.72824473
W        7.96617311       7.96617311      18.32140203
W        6.37293849       6.37293849      19.91456148
W        7.96617311       7.96617311      21.50772305
W        6.37293849       6.37293849      23.10092020
W        7.96617311       7.96617311      24.69409247
W        6.37293849       6.37293849      29.87696578
W        7.96617311       7.96617311      31.47013804
W        6.37293849       6.37293849      33.06333519
W        7.96617311       7.96617311      34.65649676
W        6.37293849       6.37293849      36.24965621
W        7.96617311       7.96617311      37.84281352
W        6.37293849       6.37293849      39.43593457
W        7.96617311       7.96617311      41.02910111
W        6.37293849       6.37293849      42.62231932
W        7.96617311       7.96617311      44.21553449
W        6.37293849       6.37293849      45.80873276
W        7.96617311       7.96617311      47.40191465
W        6.37293849       6.37293849      48.99505629
W        7.96617311       7.96617311      50.58815849
W        6.37293849       6.37293849      52.18131181
W        7.96617311       7.96617311      53.77448548
288
Lattice="9.559407728649656 -9.087318898702386e-18 2.3918883122634095e-17 -9.087318898702381e-18 9.559407728649656 -2.3057458068536844e-17 1.2294658829237918e-16 -1.138024128057971e-16 54.67362234643834" Properties=species:S:1:pos:R:3 vacuum_gap_Ang=3.692307692307692 frame_index=36 pbc="T T T"
W       -0.00000000       0.00000000       0.79657277
W        1.59323462       1.59323462       2.38974643
W       -0.00000000       0.00000000       3.98289976
W        1.59323462       1.59323462       5.57600196
W       -0.00000000       0.00000000       7.16914360
W        1.59323462       1.59323462       8.76232548
W        0.00000000      -0.00000000      10.35552376
W        1.59323462       1.59323462      11.94873892
W       -0.00000000       0.00000000      13.54195714
W        1.59323462       1.59323462      15.13512368
W        0.00000000       0.00000000      16.72824473
W        1.59323462       1.59323462      18.32140203
W        0.00000000       0.00000000      19.91456148
W        1.59323462       1.59323462      21.50772305
W        0.00000000       0.00000000      23.10092020
W        1.59323462       1.59323462      24.69409247
W       -0.00000000       0.00000000      29.97952988
W        1.59323462       1.59323462      31.57270214
W       -0.00000000       0.00000000      33.16589929
W        1.59323462       1.59323462      34.75906086
W        0.00000000      -0.00000000      36.35222031
W        1.59323462       1.59323462      37.94537762
W        0.00000000      -0.00000000      39.53849867
W        1.59323462       1.59323462      41.13166521
W       -0.00000000      -0.00000000      42.72488342
W        1.59323462       1.59323462      44.31809859
W        0.00000000      -0.00000000      45.91129687
W        1.59323462       1.59323462      47.50447875
W        0.00000000      -0.00000000      49.09762039
W        1.59323462       1.59323462      50.69072259
W        0.00000000       0.00000000      52.28387591
W        1.59323462       1.59323462      53.87704958
W        0.00000000       3.18646924       0.79657277
W        1.59323462       4.77970386       2.38974643
W        0.00000000       3.18646924       3.98289976
W        1.59323462       4.77970386       5.57600196
W       -0.00000000       3.18646924       7.16914360
W        1.59323462       4.77970386       8.76232548
W       -0.00000000       3.18646924      10.35552376
W        1.59323462       4.77970386      11.94873892
W       -0.00000000       3.18646924      13.54195714
W        1.59323462       4.77970386      15.13512368
W        0.00000000       3.18646924      16.72824473
W        1.59323462       4.77970386      18.32140203
W       -0.00000000       3.18646924      19.91456148
W        1.59323462       4.77970386      21.50772305
W        0.00000000       3.18646924      23.10092020
W        1.59323462       4.77970386      24.69409247
W        0.00000000       3.18646924      29.97952988
W        1.59323462       4.77970386      31.57270214
W       -0.00000000       3.18646924      33.16589929
W        1.59323462       4.77970386      34.75906086
W        0.00000000       3.18646924      36.35222031
W        1.59323462       4.77970386      37.94537762
W       -0.00000000       3.18646924      39.53849867
W        1.59323462       4.77970386      41.13166521
W        0.00000000       3.18646924      42.72488342
W        1.59323462       4.77970386      44.31809859
W       -0.00000000       3.18646924      45.91129687
W        1.59323462       4.77970386      47.50447875
W       -0.00000000       3.18646924      49.09762039
W        1.59323462       4.77970386      50.69072259
W        0.00000000       3.18646924      52.28387591
W        1.59323462       4.77970386      53.87704958
W       -0.00000000       6.37293849       0.79657277
W        1.59323462       7.96617311       2.38974643
W        0.00000000       6.37293849       3.98289976
W        1.59323462       7.96617311       5.57600196
W       -0.00000000       6.37293849       7.16914360
W        1.59323462       7.96617311       8.76232548
W        0.00000000       6.37293849      10.35552376
W        1.59323462       7.96617311      11.94873892
W       -0.00000000       6.37293849      13.54195714
W        1.59323462       7.96617311      15.13512368
W        0.00000000       6.37293849      16.72824473
W        1.59323462       7.96617311      18.32140203
W        0.00000000       6.37293849      19.91456148
W        1.59323462       7.96617311      21.50772305
W       -0.00000000       6.37293849      23.10092020
W        1.59323462       7.96617311      24.69409247
W       -0.00000000       6.37293849      29.97952988
W        1.59323462       7.96617311      31.57270214
W        0.00000000       6.37293849      33.16589929
W        1.59323462       7.96617311      34.75906086
W        0.00000000       6.37293849      36.35222031
W        1.59323462       7.96617311      37.94537762
W        0.00000000       6.37293849      39.53849867
W        1.59323462       7.96617311      41.13166521
W        0.00000000       6.37293849      42.72488342
W        1.59323462       7.96617311      44.31809859
W        0.00000000       6.37293849      45.91129687
W        1.59323462       7.96617311      47.50447875
W       -0.00000000       6.37293849      49.09762039
W        1.59323462       7.96617311      50.69072259
W        0.00000000       6.37293849      52.28387591
W        1.59323462       7.96617311      53.87704958
W        3.18646924       0.00000000       0.79657277
W        4.77970386       1.59323462       2.38974643
W        3.18646924      -0.00000000       3.98289976
W        4.77970386       1.59323462       5.57600196
W        3.18646924       0.00000000       7.16914360
W        4.77970386       1.59323462       8.76232548
W        3.18646924       0.00000000      10.35552376
W        4.77970386       1.59323462      11.94873892
W        3.18646924       0.00000000      13.54195714
W        4.77970386       1.59323462      15.13512368
W        3.18646924       0.00000000      16.72824473
W        4.77970386       1.59323462      18.32140203
W        3.18646924      -0.00000000      19.91456148
W        4.77970386       1.59323462      21.50772305
W        3.18646924       0.00000000      23.10092020
W        4.77970386       1.59323462      24.69409247
W        3.18646924       0.00000000      29.97952988
W        4.77970386       1.59323462      31.57270214
W        3.18646924      -0.00000000      33.16589929
W        4.77970386       1.59323462      34.75906086
W        3.18646924       0.00000000      36.35222031
W        4.77970386       1.59323462      37.94537762
W        3.18646924       0.00000000      39.53849867
W        4.77970386       1.59323462      41.13166521
W        3.18646924       0.00000000      42.72488342
W        4.77970386       1.59323462      44.31809859
W        3.18646924      -0.00000000      45.91129687
W        4.77970386       1.59323462      47.50447875
W        3.18646924       0.00000000      49.09762039
W        4.77970386       1.59323462      50.69072259
W        3.18646924       0.00000000      52.28387591
W        4.77970386       1.59323462      53.87704958
W        3.18646924       3.18646924       0.79657277
W        4.77970386       4.77970386       2.38974643
W        3.18646924       3.18646924       3.98289976
W        4.77970386       4.77970386       5.57600196
W        3.18646924       3.18646924       7.16914360
W        4.77970386       4.77970386       8.76232548
W        3.18646924       3.18646924      10.35552376
W        4.77970386       4.77970386      11.94873892
W        3.18646924       3.18646924      13.54195714
W        4.77970386       4.77970386      15.13512368
W        3.18646924       3.18646924      16.72824473
W        4.77970386       4.77970386      18.32140203
W        3.18646924       3.18646924      19.91456148
W        4.77970386       4.77970386      21.50772305
W        3.18646924       3.18646924      23.10092020
W        4.77970386       4.77970386      24.69409247
W        3.18646924       3.18646924      29.97952988
W        4.77970386       4.77970386      31.57270214
W        3.18646924       3.18646924      33.16589929
W        4.77970386       4.77970386      34.75906086
W        3.18646924       3.18646924      36.35222031
W        4.77970386       4.77970386      37.94537762
W        3.18646924       3.18646924      39.53849867
W        4.77970386       4.77970386      41.13166521
W        3.18646924       3.18646924      42.72488342
W        4.77970386       4.77970386      44.31809859
W        3.18646924       3.18646924      45.91129687
W        4.77970386       4.77970386      47.50447875
W        3.18646924       3.18646924      49.09762039
W        4.77970386       4.77970386      50.69072259
W        3.18646924       3.18646924      52.28387591
W        4.77970386       4.77970386      53.87704958
W        3.18646924       6.37293849       0.79657277
W        4.77970386       7.96617311       2.38974643
W        3.18646924       6.37293849       3.98289976
W        4.77970386       7.96617311       5.57600196
W        3.18646924       6.37293849       7.16914360
W        4.77970386       7.96617311       8.76232548
W        3.18646924       6.37293849      10.35552376
W        4.77970386       7.96617311      11.94873892
W        3.18646924       6.37293849      13.54195714
W        4.77970386       7.96617311      15.13512368
W        3.18646924       6.37293849      16.72824473
W        4.77970386       7.96617311      18.32140203
W        3.18646924       6.37293849      19.91456148
W        4.77970386       7.96617311      21.50772305
W        3.18646924       6.37293849      23.10092020
W        4.77970386       7.96617311      24.69409247
W        3.18646924       6.37293849      29.97952988
W        4.77970386       7.96617311      31.57270214
W        3.18646924       6.37293849      33.16589929
W        4.77970386       7.96617311      34.75906086
W        3.18646924       6.37293849      36.35222031
W        4.77970386       7.96617311      37.94537762
W        3.18646924       6.37293849      39.53849867
W        4.77970386       7.96617311      41.13166521
W        3.18646924       6.37293849      42.72488342
W        4.77970386       7.96617311      44.31809859
W        3.18646924       6.37293849      45.91129687
W        4.77970386       7.96617311      47.50447875
W        3.18646924       6.37293849      49.09762039
W        4.77970386       7.96617311      50.69072259
W        3.18646924       6.37293849      52.28387591
W        4.77970386       7.96617311      53.87704958
W        6.37293849       0.00000000       0.79657277
W        7.96617311       1.59323462       2.38974643
W        6.37293849       0.00000000       3.98289976
W        7.96617311       1.59323462       5.57600196
W        6.37293849       0.00000000       7.16914360
W        7.96617311       1.59323462       8.76232548
W        6.37293849      -0.00000000      10.35552376
W        7.96617311       1.59323462      11.94873892
W        6.37293849       0.00000000      13.54195714
W        7.96617311       1.59323462      15.13512368
W        6.37293849      -0.00000000      16.72824473
W        7.96617311       1.59323462      18.32140203
W        6.37293849       0.00000000      19.91456148
W        7.96617311       1.59323462      21.50772305
W        6.37293849       0.00000000      23.10092020
W        7.96617311       1.59323462      24.69409247
W        6.37293849       0.00000000      29.97952988
W        7.96617311       1.59323462      31.57270214
W        6.37293849       0.00000000      33.16589929
W        7.96617311       1.59323462      34.75906086
W        6.37293849      -0.00000000      36.35222031
W        7.96617311       1.59323462      37.94537762
W        6.37293849       0.00000000      39.53849867
W        7.96617311       1.59323462      41.13166521
W        6.37293849      -0.00000000      42.72488342
W        7.96617311       1.59323462      44.31809859
W        6.37293849       0.00000000      45.91129687
W        7.96617311       1.59323462      47.50447875
W        6.37293849       0.00000000      49.09762039
W        7.96617311       1.59323462      50.69072259
W        6.37293849      -0.00000000      52.28387591
W        7.96617311       1.59323462      53.87704958
W        6.37293849       3.18646924       0.79657277
W        7.96617311       4.77970386       2.38974643
W        6.37293849       3.18646924       3.98289976
W        7.96617311       4.77970386       5.57600196
W        6.37293849       3.18646924       7.16914360
W        7.96617311       4.77970386       8.76232548
W        6.37293849       3.18646924      10.35552376
W        7.96617311       4.77970386      11.94873892
W        6.37293849       3.18646924      13.54195714
W        7.96617311       4.77970386      15.13512368
W        6.37293849       3.18646924      16.72824473
W        7.96617311       4.77970386      18.32140203
W        6.37293849       3.18646924      19.91456148
W        7.96617311       4.77970386      21.50772305
W        6.37293849       3.18646924      23.10092020
W        7.96617311       4.77970386      24.69409247
W        6.37293849       3.18646924      29.97952988
W        7.96617311       4.77970386      31.57270214
W        6.37293849       3.18646924      33.16589929
W        7.96617311       4.77970386      34.75906086
W        6.37293849       3.18646924      36.35222031
W        7.96617311       4.77970386      37.94537762
W        6.37293849       3.18646924      39.53849867
W        7.96617311       4.77970386      41.13166521
W        6.37293849       3.18646924      42.72488342
W        7.96617311       4.77970386      44.31809859
W        6.37293849       3.18646924      45.91129687
W        7.96617311       4.77970386      47.50447875
W        6.37293849       3.18646924      49.09762039
W        7.96617311       4.77970386      50.69072259
W        6.37293849       3.18646924      52.28387591
W        7.96617311       4.77970386      53.87704958
W        6.37293849       6.37293849       0.79657277
W        7.96617311       7.96617311       2.38974643
W        6.37293849       6.37293849       3.98289976
W        7.96617311       7.96617311       5.57600196
W        6.37293849       6.37293849       7.16914360
W        7.96617311       7.96617311       8.76232548
W        6.37293849       6.37293849      10.35552376
W        7.96617311       7.96617311      11.94873892
W        6.37293849       6.37293849      13.54195714
W        7.96617311       7.96617311      15.13512368
W        6.37293849       6.37293849      16.72824473
W        7.96617311       7.96617311      18.32140203
W        6.37293849       6.37293849      19.91456148
W        7.96617311       7.96617311      21.50772305
W        6.37293849       6.37293849      23.10092020
W        7.96617311       7.96617311      24.69409247
W        6.37293849       6.37293849      29.97952988
W        7.96617311       7.96617311      31.57270214
W        6.37293849       6.37293849      33.16589929
W        7.96617311       7.96617311      34.75906086
W        6.37293849       6.37293849      36.35222031
W        7.96617311       7.96617311      37.94537762
W        6.37293849       6.37293849      39.53849867
W        7.96617311       7.96617311      41.13166521
W        6.37293849       6.37293849      42.72488342
W        7.96617311       7.96617311      44.31809859
W        6.37293849       6.37293849      45.91129687
W        7.96617311       7.96617311      47.50447875
W        6.37293849       6.37293849      49.09762039
W        7.96617311       7.96617311      50.69072259
W        6.37293849       6.37293849      52.28387591
W        7.96617311       7.96617311      53.87704958
288
Lattice="9.559407728649656 -9.087318898702386e-18 2.3918883122634095e-17 -9.087318898702381e-18 9.559407728649656 -2.3057458068536844e-17 1.2294658829237918e-16 -1.138024128057971e-16 54.776186449002445" Properties=species:S:1:pos:R:3 vacuum_gap_Ang=3.7948717948717947 frame_index=37 pbc="T T T"
W       -0.00000000       0.00000000       0.79657277
W        1.59323462       1.59323462       2.38974643
W       -0.00000000       0.00000000       3.98289976
W        1.59323462       1.59323462       5.57600196
W       -0.00000000       0.00000000       7.16914360
W        1.59323462       1.59323462       8.76232548
W        0.00000000      -0.00000000      10.35552376
W        1.59323462       1.59323462      11.94873892
W       -0.00000000       0.00000000      13.54195714
W        1.59323462       1.59323462      15.13512368
W        0.00000000       0.00000000      16.72824473
W        1.59323462       1.59323462      18.32140203
W        0.00000000       0.00000000      19.91456148
W        1.59323462       1.59323462      21.50772305
W        0.00000000       0.00000000      23.10092020
W        1.59323462       1.59323462      24.69409247
W       -0.00000000       0.00000000      30.08209398
W        1.59323462       1.59323462      31.67526624
W       -0.00000000       0.00000000      33.26846339
W        1.59323462       1.59323462      34.86162497
W        0.00000000      -0.00000000      36.45478442
W        1.59323462       1.59323462      38.04794172
W        0.00000000      -0.00000000      39.64106277
W        1.59323462       1.59323462      41.23422931
W       -0.00000000      -0.00000000      42.82744753
W        1.59323462       1.59323462      44.42066269
W        0.00000000      -0.00000000      46.01386097
W        1.59323462       1.59323462      47.60704285
W        0.00000000      -0.00000000      49.20018449
W        1.59323462       1.59323462      50.79328669
W        0.00000000       0.00000000      52.38644001
W        1.59323462       1.59323462      53.97961368
W        0.00000000       3.18646924       0.79657277
W        1.59323462       4.77970386       2.38974643
W        0.00000000       3.18646924       3.98289976
W        1.59323462       4.77970386       5.57600196
W       -0.00000000       3.18646924       7.16914360
W        1.59323462       4.77970386       8.76232548
W       -0.00000000       3.18646924      10.35552376
W        1.59323462       4.77970386      11.94873892
W       -0.00000000       3.18646924      13.54195714
W        1.59323462       4.77970386      15.13512368
W        0.00000000       3.18646924      16.72824473
W        1.59323462       4.77970386      18.32140203
W       -0.00000000       3.18646924      19.91456148
W        1.59323462       4.77970386      21.50772305
W        0.00000000       3.18646924      23.10092020
W        1.59323462       4.77970386      24.69409247
W        0.00000000       3.18646924      30.08209398
W        1.59323462       4.77970386      31.67526624
W       -0.00000000       3.18646924      33.26846339
W        1.59323462       4.77970386      34.86162497
W        0.00000000       3.18646924      36.45478442
W        1.59323462       4.77970386      38.04794172
W       -0.00000000       3.18646924      39.64106277
W        1.59323462       4.77970386      41.23422931
W        0.00000000       3.18646924      42.82744753
W        1.59323462       4.77970386      44.42066269
W       -0.00000000       3.18646924      46.01386097
W        1.59323462       4.77970386      47.60704285
W       -0.00000000       3.18646924      49.20018449
W        1.59323462       4.77970386      50.79328669
W        0.00000000       3.18646924      52.38644001
W        1.59323462       4.77970386      53.97961368
W       -0.00000000       6.37293849       0.79657277
W        1.59323462       7.96617311       2.38974643
W        0.00000000       6.37293849       3.98289976
W        1.59323462       7.96617311       5.57600196
W       -0.00000000       6.37293849       7.16914360
W        1.59323462       7.96617311       8.76232548
W        0.00000000       6.37293849      10.35552376
W        1.59323462       7.96617311      11.94873892
W       -0.00000000       6.37293849      13.54195714
W        1.59323462       7.96617311      15.13512368
W        0.00000000       6.37293849      16.72824473
W        1.59323462       7.96617311      18.32140203
W        0.00000000       6.37293849      19.91456148
W        1.59323462       7.96617311      21.50772305
W       -0.00000000       6.37293849      23.10092020
W        1.59323462       7.96617311      24.69409247
W       -0.00000000       6.37293849      30.08209398
W        1.59323462       7.96617311      31.67526624
W        0.00000000       6.37293849      33.26846339
W        1.59323462       7.96617311      34.86162497
W        0.00000000       6.37293849      36.45478442
W        1.59323462       7.96617311      38.04794172
W        0.00000000       6.37293849      39.64106277
W        1.59323462       7.96617311      41.23422931
W        0.00000000       6.37293849      42.82744753
W        1.59323462       7.96617311      44.42066269
W        0.00000000       6.37293849      46.01386097
W        1.59323462       7.96617311      47.60704285
W       -0.00000000       6.37293849      49.20018449
W        1.59323462       7.96617311      50.79328669
W        0.00000000       6.37293849      52.38644001
W        1.59323462       7.96617311      53.97961368
W        3.18646924       0.00000000       0.79657277
W        4.77970386       1.59323462       2.38974643
W        3.18646924      -0.00000000       3.98289976
W        4.77970386       1.59323462       5.57600196
W        3.18646924       0.00000000       7.16914360
W        4.77970386       1.59323462       8.76232548
W        3.18646924       0.00000000      10.35552376
W        4.77970386       1.59323462      11.94873892
W        3.18646924       0.00000000      13.54195714
W        4.77970386       1.59323462      15.13512368
W        3.18646924       0.00000000      16.72824473
W        4.77970386       1.59323462      18.32140203
W        3.18646924      -0.00000000      19.91456148
W        4.77970386       1.59323462      21.50772305
W        3.18646924       0.00000000      23.10092020
W        4.77970386       1.59323462      24.69409247
W        3.18646924       0.00000000      30.08209398
W        4.77970386       1.59323462      31.67526624
W        3.18646924      -0.00000000      33.26846339
W        4.77970386       1.59323462      34.86162497
W        3.18646924       0.00000000      36.45478442
W        4.77970386       1.59323462      38.04794172
W        3.18646924       0.00000000      39.64106277
W        4.77970386       1.59323462      41.23422931
W        3.18646924       0.00000000      42.82744753
W        4.77970386       1.59323462      44.42066269
W        3.18646924      -0.00000000      46.01386097
W        4.77970386       1.59323462      47.60704285
W        3.18646924       0.00000000      49.20018449
W        4.77970386       1.59323462      50.79328669
W        3.18646924       0.00000000      52.38644001
W        4.77970386       1.59323462      53.97961368
W        3.18646924       3.18646924       0.79657277
W        4.77970386       4.77970386       2.38974643
W        3.18646924       3.18646924       3.98289976
W        4.77970386       4.77970386       5.57600196
W        3.18646924       3.18646924       7.16914360
W        4.77970386       4.77970386       8.76232548
W        3.18646924       3.18646924      10.35552376
W        4.77970386       4.77970386      11.94873892
W        3.18646924       3.18646924      13.54195714
W        4.77970386       4.77970386      15.13512368
W        3.18646924       3.18646924      16.72824473
W        4.77970386       4.77970386      18.32140203
W        3.18646924       3.18646924      19.91456148
W        4.77970386       4.77970386      21.50772305
W        3.18646924       3.18646924      23.10092020
W        4.77970386       4.77970386      24.69409247
W        3.18646924       3.18646924      30.08209398
W        4.77970386       4.77970386      31.67526624
W        3.18646924       3.18646924      33.26846339
W        4.77970386       4.77970386      34.86162497
W        3.18646924       3.18646924      36.45478442
W        4.77970386       4.77970386      38.04794172
W        3.18646924       3.18646924      39.64106277
W        4.77970386       4.77970386      41.23422931
W        3.18646924       3.18646924      42.82744753
W        4.77970386       4.77970386      44.42066269
W        3.18646924       3.18646924      46.01386097
W        4.77970386       4.77970386      47.60704285
W        3.18646924       3.18646924      49.20018449
W        4.77970386       4.77970386      50.79328669
W        3.18646924       3.18646924      52.38644001
W        4.77970386       4.77970386      53.97961368
W        3.18646924       6.37293849       0.79657277
W        4.77970386       7.96617311       2.38974643
W        3.18646924       6.37293849       3.98289976
W        4.77970386       7.96617311       5.57600196
W        3.18646924       6.37293849       7.16914360
W        4.77970386       7.96617311       8.76232548
W        3.18646924       6.37293849      10.35552376
W        4.77970386       7.96617311      11.94873892
W        3.18646924       6.37293849      13.54195714
W        4.77970386       7.96617311      15.13512368
W        3.18646924       6.37293849      16.72824473
W        4.77970386       7.96617311      18.32140203
W        3.18646924       6.37293849      19.91456148
W        4.77970386       7.96617311      21.50772305
W        3.18646924       6.37293849      23.10092020
W        4.77970386       7.96617311      24.69409247
W        3.18646924       6.37293849      30.08209398
W        4.77970386       7.96617311      31.67526624
W        3.18646924       6.37293849      33.26846339
W        4.77970386       7.96617311      34.86162497
W        3.18646924       6.37293849      36.45478442
W        4.77970386       7.96617311      38.04794172
W        3.18646924       6.37293849      39.64106277
W        4.77970386       7.96617311      41.23422931
W        3.18646924       6.37293849      42.82744753
W        4.77970386       7.96617311      44.42066269
W        3.18646924       6.37293849      46.01386097
W        4.77970386       7.96617311      47.60704285
W        3.18646924       6.37293849      49.20018449
W        4.77970386       7.96617311      50.79328669
W        3.18646924       6.37293849      52.38644001
W        4.77970386       7.96617311      53.97961368
W        6.37293849       0.00000000       0.79657277
W        7.96617311       1.59323462       2.38974643
W        6.37293849       0.00000000       3.98289976
W        7.96617311       1.59323462       5.57600196
W        6.37293849       0.00000000       7.16914360
W        7.96617311       1.59323462       8.76232548
W        6.37293849      -0.00000000      10.35552376
W        7.96617311       1.59323462      11.94873892
W        6.37293849       0.00000000      13.54195714
W        7.96617311       1.59323462      15.13512368
W        6.37293849      -0.00000000      16.72824473
W        7.96617311       1.59323462      18.32140203
W        6.37293849       0.00000000      19.91456148
W        7.96617311       1.59323462      21.50772305
W        6.37293849       0.00000000      23.10092020
W        7.96617311       1.59323462      24.69409247
W        6.37293849       0.00000000      30.08209398
W        7.96617311       1.59323462      31.67526624
W        6.37293849       0.00000000      33.26846339
W        7.96617311       1.59323462      34.86162497
W        6.37293849      -0.00000000      36.45478442
W        7.96617311       1.59323462      38.04794172
W        6.37293849       0.00000000      39.64106277
W        7.96617311       1.59323462      41.23422931
W        6.37293849      -0.00000000      42.82744753
W        7.96617311       1.59323462      44.42066269
W        6.37293849       0.00000000      46.01386097
W        7.96617311       1.59323462      47.60704285
W        6.37293849       0.00000000      49.20018449
W        7.96617311       1.59323462      50.79328669
W        6.37293849      -0.00000000      52.38644001
W        7.96617311       1.59323462      53.97961368
W        6.37293849       3.18646924       0.79657277
W        7.96617311       4.77970386       2.38974643
W        6.37293849       3.18646924       3.98289976
W        7.96617311       4.77970386       5.57600196
W        6.37293849       3.18646924       7.16914360
W        7.96617311       4.77970386       8.76232548
W        6.37293849       3.18646924      10.35552376
W        7.96617311       4.77970386      11.94873892
W        6.37293849       3.18646924      13.54195714
W        7.96617311       4.77970386      15.13512368
W        6.37293849       3.18646924      16.72824473
W        7.96617311       4.77970386      18.32140203
W        6.37293849       3.18646924      19.91456148
W        7.96617311       4.77970386      21.50772305
W        6.37293849       3.18646924      23.10092020
W        7.96617311       4.77970386      24.69409247
W        6.37293849       3.18646924      30.08209398
W        7.96617311       4.77970386      31.67526624
W        6.37293849       3.18646924      33.26846339
W        7.96617311       4.77970386      34.86162497
W        6.37293849       3.18646924      36.45478442
W        7.96617311       4.77970386      38.04794172
W        6.37293849       3.18646924      39.64106277
W        7.96617311       4.77970386      41.23422931
W        6.37293849       3.18646924      42.82744753
W        7.96617311       4.77970386      44.42066269
W        6.37293849       3.18646924      46.01386097
W        7.96617311       4.77970386      47.60704285
W        6.37293849       3.18646924      49.20018449
W        7.96617311       4.77970386      50.79328669
W        6.37293849       3.18646924      52.38644001
W        7.96617311       4.77970386      53.97961368
W        6.37293849       6.37293849       0.79657277
W        7.96617311       7.96617311       2.38974643
W        6.37293849       6.37293849       3.98289976
W        7.96617311       7.96617311       5.57600196
W        6.37293849       6.37293849       7.16914360
W        7.96617311       7.96617311       8.76232548
W        6.37293849       6.37293849      10.35552376
W        7.96617311       7.96617311      11.94873892
W        6.37293849       6.37293849      13.54195714
W        7.96617311       7.96617311      15.13512368
W        6.37293849       6.37293849      16.72824473
W        7.96617311       7.96617311      18.32140203
W        6.37293849       6.37293849      19.91456148
W        7.96617311       7.96617311      21.50772305
W        6.37293849       6.37293849      23.10092020
W        7.96617311       7.96617311      24.69409247
W        6.37293849       6.37293849      30.08209398
W        7.96617311       7.96617311      31.67526624
W        6.37293849       6.37293849      33.26846339
W        7.96617311       7.96617311      34.86162497
W        6.37293849       6.37293849      36.45478442
W        7.96617311       7.96617311      38.04794172
W        6.37293849       6.37293849      39.64106277
W        7.96617311       7.96617311      41.23422931
W        6.37293849       6.37293849      42.82744753
W        7.96617311       7.96617311      44.42066269
W        6.37293849       6.37293849      46.01386097
W        7.96617311       7.96617311      47.60704285
W        6.37293849       6.37293849      49.20018449
W        7.96617311       7.96617311      50.79328669
W        6.37293849       6.37293849      52.38644001
W        7.96617311       7.96617311      53.97961368
288
Lattice="9.559407728649656 -9.087318898702386e-18 2.3918883122634095e-17 -9.087318898702381e-18 9.559407728649656 -2.3057458068536844e-17 1.2294658829237918e-16 -1.138024128057971e-16 54.87875055156655" Properties=species:S:1:pos:R:3 vacuum_gap_Ang=3.8974358974358974 frame_index=38 pbc="T T T"
W       -0.00000000       0.00000000       0.79657277
W        1.59323462       1.59323462       2.38974643
W       -0.00000000       0.00000000       3.98289976
W        1.59323462       1.59323462       5.57600196
W       -0.00000000       0.00000000       7.16914360
W        1.59323462       1.59323462       8.76232548
W        0.00000000      -0.00000000      10.35552376
W        1.59323462       1.59323462      11.94873892
W       -0.00000000       0.00000000      13.54195714
W        1.59323462       1.59323462      15.13512368
W        0.00000000       0.00000000      16.72824473
W        1.59323462       1.59323462      18.32140203
W        0.00000000       0.00000000      19.91456148
W        1.59323462       1.59323462      21.50772305
W        0.00000000       0.00000000      23.10092020
W        1.59323462       1.59323462      24.69409247
W       -0.00000000       0.00000000      30.18465809
W        1.59323462       1.59323462      31.77783035
W       -0.00000000       0.00000000      33.37102750
W        1.59323462       1.59323462      34.96418907
W        0.00000000      -0.00000000      36.55734852
W        1.59323462       1.59323462      38.15050582
W        0.00000000      -0.00000000      39.74362687
W        1.59323462       1.59323462      41.33679341
W       -0.00000000      -0.00000000      42.93001163
W        1.59323462       1.59323462      44.52322679
W        0.00000000      -0.00000000      46.11642507
W        1.59323462       1.59323462      47.70960695
W        0.00000000      -0.00000000      49.30274859
W        1.59323462       1.59323462      50.89585079
W        0.00000000       0.00000000      52.48900412
W        1.59323462       1.59323462      54.08217778
W        0.00000000       3.18646924       0.79657277
W        1.59323462       4.77970386       2.38974643
W        0.00000000       3.18646924       3.98289976
W        1.59323462       4.77970386       5.57600196
W       -0.00000000       3.18646924       7.16914360
W        1.59323462       4.77970386       8.76232548
W       -0.00000000       3.18646924      10.35552376
W        1.59323462       4.77970386      11.94873892
W       -0.00000000       3.18646924      13.54195714
W        1.59323462       4.77970386      15.13512368
W        0.00000000       3.18646924      16.72824473
W        1.59323462       4.77970386      18.32140203
W       -0.00000000       3.18646924      19.91456148
W        1.59323462       4.77970386      21.50772305
W        0.00000000       3.18646924      23.10092020
W        1.59323462       4.77970386      24.69409247
W        0.00000000       3.18646924      30.18465809
W        1.59323462       4.77970386      31.77783035
W       -0.00000000       3.18646924      33.37102750
W        1.59323462       4.77970386      34.96418907
W        0.00000000       3.18646924      36.55734852
W        1.59323462       4.77970386      38.15050582
W       -0.00000000       3.18646924      39.74362687
W        1.59323462       4.77970386      41.33679341
W        0.00000000       3.18646924      42.93001163
W        1.59323462       4.77970386      44.52322679
W       -0.00000000       3.18646924      46.11642507
W        1.59323462       4.77970386      47.70960695
W       -0.00000000       3.18646924      49.30274859
W        1.59323462       4.77970386      50.89585079
W        0.00000000       3.18646924      52.48900412
W        1.59323462       4.77970386      54.08217778
W       -0.00000000       6.37293849       0.79657277
W        1.59323462       7.96617311       2.38974643
W        0.00000000       6.37293849       3.98289976
W        1.59323462       7.96617311       5.57600196
W       -0.00000000       6.37293849       7.16914360
W        1.59323462       7.96617311       8.76232548
W        0.00000000       6.37293849      10.35552376
W        1.59323462       7.96617311      11.94873892
W       -0.00000000       6.37293849      13.54195714
W        1.59323462       7.96617311      15.13512368
W        0.00000000       6.37293849      16.72824473
W        1.59323462       7.96617311      18.32140203
W        0.00000000       6.37293849      19.91456148
W        1.59323462       7.96617311      21.50772305
W       -0.00000000       6.37293849      23.10092020
W        1.59323462       7.96617311      24.69409247
W       -0.00000000       6.37293849      30.18465809
W        1.59323462       7.96617311      31.77783035
W        0.00000000       6.37293849      33.37102750
W        1.59323462       7.96617311      34.96418907
W        0.00000000       6.37293849      36.55734852
W        1.59323462       7.96617311      38.15050582
W        0.00000000       6.37293849      39.74362687
W        1.59323462       7.96617311      41.33679341
W        0.00000000       6.37293849      42.93001163
W        1.59323462       7.96617311      44.52322679
W        0.00000000       6.37293849      46.11642507
W        1.59323462       7.96617311      47.70960695
W       -0.00000000       6.37293849      49.30274859
W        1.59323462       7.96617311      50.89585079
W        0.00000000       6.37293849      52.48900412
W        1.59323462       7.96617311      54.08217778
W        3.18646924       0.00000000       0.79657277
W        4.77970386       1.59323462       2.38974643
W        3.18646924      -0.00000000       3.98289976
W        4.77970386       1.59323462       5.57600196
W        3.18646924       0.00000000       7.16914360
W        4.77970386       1.59323462       8.76232548
W        3.18646924       0.00000000      10.35552376
W        4.77970386       1.59323462      11.94873892
W        3.18646924       0.00000000      13.54195714
W        4.77970386       1.59323462      15.13512368
W        3.18646924       0.00000000      16.72824473
W        4.77970386       1.59323462      18.32140203
W        3.18646924      -0.00000000      19.91456148
W        4.77970386       1.59323462      21.50772305
W        3.18646924       0.00000000      23.10092020
W        4.77970386       1.59323462      24.69409247
W        3.18646924       0.00000000      30.18465809
W        4.77970386       1.59323462      31.77783035
W        3.18646924      -0.00000000      33.37102750
W        4.77970386       1.59323462      34.96418907
W        3.18646924       0.00000000      36.55734852
W        4.77970386       1.59323462      38.15050582
W        3.18646924       0.00000000      39.74362687
W        4.77970386       1.59323462      41.33679341
W        3.18646924       0.00000000      42.93001163
W        4.77970386       1.59323462      44.52322679
W        3.18646924      -0.00000000      46.11642507
W        4.77970386       1.59323462      47.70960695
W        3.18646924       0.00000000      49.30274859
W        4.77970386       1.59323462      50.89585079
W        3.18646924       0.00000000      52.48900412
W        4.77970386       1.59323462      54.08217778
W        3.18646924       3.18646924       0.79657277
W        4.77970386       4.77970386       2.38974643
W        3.18646924       3.18646924       3.98289976
W        4.77970386       4.77970386       5.57600196
W        3.18646924       3.18646924       7.16914360
W        4.77970386       4.77970386       8.76232548
W        3.18646924       3.18646924      10.35552376
W        4.77970386       4.77970386      11.94873892
W        3.18646924       3.18646924      13.54195714
W        4.77970386       4.77970386      15.13512368
W        3.18646924       3.18646924      16.72824473
W        4.77970386       4.77970386      18.32140203
W        3.18646924       3.18646924      19.91456148
W        4.77970386       4.77970386      21.50772305
W        3.18646924       3.18646924      23.10092020
W        4.77970386       4.77970386      24.69409247
W        3.18646924       3.18646924      30.18465809
W        4.77970386       4.77970386      31.77783035
W        3.18646924       3.18646924      33.37102750
W        4.77970386       4.77970386      34.96418907
W        3.18646924       3.18646924      36.55734852
W        4.77970386       4.77970386      38.15050582
W        3.18646924       3.18646924      39.74362687
W        4.77970386       4.77970386      41.33679341
W        3.18646924       3.18646924      42.93001163
W        4.77970386       4.77970386      44.52322679
W        3.18646924       3.18646924      46.11642507
W        4.77970386       4.77970386      47.70960695
W        3.18646924       3.18646924      49.30274859
W        4.77970386       4.77970386      50.89585079
W        3.18646924       3.18646924      52.48900412
W        4.77970386       4.77970386      54.08217778
W        3.18646924       6.37293849       0.79657277
W        4.77970386       7.96617311       2.38974643
W        3.18646924       6.37293849       3.98289976
W        4.77970386       7.96617311       5.57600196
W        3.18646924       6.37293849       7.16914360
W        4.77970386       7.96617311       8.76232548
W        3.18646924       6.37293849      10.35552376
W        4.77970386       7.96617311      11.94873892
W        3.18646924       6.37293849      13.54195714
W        4.77970386       7.96617311      15.13512368
W        3.18646924       6.37293849      16.72824473
W        4.77970386       7.96617311      18.32140203
W        3.18646924       6.37293849      19.91456148
W        4.77970386       7.96617311      21.50772305
W        3.18646924       6.37293849      23.10092020
W        4.77970386       7.96617311      24.69409247
W        3.18646924       6.37293849      30.18465809
W        4.77970386       7.96617311      31.77783035
W        3.18646924       6.37293849      33.37102750
W        4.77970386       7.96617311      34.96418907
W        3.18646924       6.37293849      36.55734852
W        4.77970386       7.96617311      38.15050582
W        3.18646924       6.37293849      39.74362687
W        4.77970386       7.96617311      41.33679341
W        3.18646924       6.37293849      42.93001163
W        4.77970386       7.96617311      44.52322679
W        3.18646924       6.37293849      46.11642507
W        4.77970386       7.96617311      47.70960695
W        3.18646924       6.37293849      49.30274859
W        4.77970386       7.96617311      50.89585079
W        3.18646924       6.37293849      52.48900412
W        4.77970386       7.96617311      54.08217778
W        6.37293849       0.00000000       0.79657277
W        7.96617311       1.59323462       2.38974643
W        6.37293849       0.00000000       3.98289976
W        7.96617311       1.59323462       5.57600196
W        6.37293849       0.00000000       7.16914360
W        7.96617311       1.59323462       8.76232548
W        6.37293849      -0.00000000      10.35552376
W        7.96617311       1.59323462      11.94873892
W        6.37293849       0.00000000      13.54195714
W        7.96617311       1.59323462      15.13512368
W        6.37293849      -0.00000000      16.72824473
W        7.96617311       1.59323462      18.32140203
W        6.37293849       0.00000000      19.91456148
W        7.96617311       1.59323462      21.50772305
W        6.37293849       0.00000000      23.10092020
W        7.96617311       1.59323462      24.69409247
W        6.37293849       0.00000000      30.18465809
W        7.96617311       1.59323462      31.77783035
W        6.37293849       0.00000000      33.37102750
W        7.96617311       1.59323462      34.96418907
W        6.37293849      -0.00000000      36.55734852
W        7.96617311       1.59323462      38.15050582
W        6.37293849       0.00000000      39.74362687
W        7.96617311       1.59323462      41.33679341
W        6.37293849      -0.00000000      42.93001163
W        7.96617311       1.59323462      44.52322679
W        6.37293849       0.00000000      46.11642507
W        7.96617311       1.59323462      47.70960695
W        6.37293849       0.00000000      49.30274859
W        7.96617311       1.59323462      50.89585079
W        6.37293849      -0.00000000      52.48900412
W        7.96617311       1.59323462      54.08217778
W        6.37293849       3.18646924       0.79657277
W        7.96617311       4.77970386       2.38974643
W        6.37293849       3.18646924       3.98289976
W        7.96617311       4.77970386       5.57600196
W        6.37293849       3.18646924       7.16914360
W        7.96617311       4.77970386       8.76232548
W        6.37293849       3.18646924      10.35552376
W        7.96617311       4.77970386      11.94873892
W        6.37293849       3.18646924      13.54195714
W        7.96617311       4.77970386      15.13512368
W        6.37293849       3.18646924      16.72824473
W        7.96617311       4.77970386      18.32140203
W        6.37293849       3.18646924      19.91456148
W        7.96617311       4.77970386      21.50772305
W        6.37293849       3.18646924      23.10092020
W        7.96617311       4.77970386      24.69409247
W        6.37293849       3.18646924      30.18465809
W        7.96617311       4.77970386      31.77783035
W        6.37293849       3.18646924      33.37102750
W        7.96617311       4.77970386      34.96418907
W        6.37293849       3.18646924      36.55734852
W        7.96617311       4.77970386      38.15050582
W        6.37293849       3.18646924      39.74362687
W        7.96617311       4.77970386      41.33679341
W        6.37293849       3.18646924      42.93001163
W        7.96617311       4.77970386      44.52322679
W        6.37293849       3.18646924      46.11642507
W        7.96617311       4.77970386      47.70960695
W        6.37293849       3.18646924      49.30274859
W        7.96617311       4.77970386      50.89585079
W        6.37293849       3.18646924      52.48900412
W        7.96617311       4.77970386      54.08217778
W        6.37293849       6.37293849       0.79657277
W        7.96617311       7.96617311       2.38974643
W        6.37293849       6.37293849       3.98289976
W        7.96617311       7.96617311       5.57600196
W        6.37293849       6.37293849       7.16914360
W        7.96617311       7.96617311       8.76232548
W        6.37293849       6.37293849      10.35552376
W        7.96617311       7.96617311      11.94873892
W        6.37293849       6.37293849      13.54195714
W        7.96617311       7.96617311      15.13512368
W        6.37293849       6.37293849      16.72824473
W        7.96617311       7.96617311      18.32140203
W        6.37293849       6.37293849      19.91456148
W        7.96617311       7.96617311      21.50772305
W        6.37293849       6.37293849      23.10092020
W        7.96617311       7.96617311      24.69409247
W        6.37293849       6.37293849      30.18465809
W        7.96617311       7.96617311      31.77783035
W        6.37293849       6.37293849      33.37102750
W        7.96617311       7.96617311      34.96418907
W        6.37293849       6.37293849      36.55734852
W        7.96617311       7.96617311      38.15050582
W        6.37293849       6.37293849      39.74362687
W        7.96617311       7.96617311      41.33679341
W        6.37293849       6.37293849      42.93001163
W        7.96617311       7.96617311      44.52322679
W        6.37293849       6.37293849      46.11642507
W        7.96617311       7.96617311      47.70960695
W        6.37293849       6.37293849      49.30274859
W        7.96617311       7.96617311      50.89585079
W        6.37293849       6.37293849      52.48900412
W        7.96617311       7.96617311      54.08217778
288
Lattice="9.559407728649656 -9.087318898702386e-18 2.3918883122634095e-17 -9.087318898702381e-18 9.559407728649656 -2.3057458068536844e-17 1.2294658829237918e-16 -1.138024128057971e-16 54.98131465413065" Properties=species:S:1:pos:R:3 vacuum_gap_Ang=4.0 frame_index=39 pbc="T T T"
W       -0.00000000       0.00000000       0.79657277
W        1.59323462       1.59323462       2.38974643
W       -0.00000000       0.00000000       3.98289976
W        1.59323462       1.59323462       5.57600196
W       -0.00000000       0.00000000       7.16914360
W        1.59323462       1.59323462       8.76232548
W        0.00000000      -0.00000000      10.35552376
W        1.59323462       1.59323462      11.94873892
W       -0.00000000       0.00000000      13.54195714
W        1.59323462       1.59323462      15.13512368
W        0.00000000       0.00000000      16.72824473
W        1.59323462       1.59323462      18.32140203
W        0.00000000       0.00000000      19.91456148
W        1.59323462       1.59323462      21.50772305
W        0.00000000       0.00000000      23.10092020
W        1.59323462       1.59323462      24.69409247
W       -0.00000000       0.00000000      30.28722219
W        1.59323462       1.59323462      31.88039445
W       -0.00000000       0.00000000      33.47359160
W        1.59323462       1.59323462      35.06675317
W        0.00000000      -0.00000000      36.65991262
W        1.59323462       1.59323462      38.25306993
W        0.00000000      -0.00000000      39.84619098
W        1.59323462       1.59323462      41.43935752
W       -0.00000000      -0.00000000      43.03257573
W        1.59323462       1.59323462      44.62579090
W        0.00000000      -0.00000000      46.21898917
W        1.59323462       1.59323462      47.81217106
W        0.00000000      -0.00000000      49.40531270
W        1.59323462       1.59323462      50.99841490
W        0.00000000       0.00000000      52.59156822
W        1.59323462       1.59323462      54.18474189
W        0.00000000       3.18646924       0.79657277
W        1.59323462       4.77970386       2.38974643
W        0.00000000       3.18646924       3.98289976
W        1.59323462       4.77970386       5.57600196
W       -0.00000000       3.18646924       7.16914360
W        1.59323462       4.77970386       8.76232548
W       -0.00000000       3.18646924      10.35552376
W        1.59323462       4.77970386      11.94873892
W       -0.00000000       3.18646924      13.54195714
W        1.59323462       4.77970386      15.13512368
W        0.00000000       3.18646924      16.72824473
W        1.59323462       4.77970386      18.32140203
W       -0.00000000       3.18646924      19.91456148
W        1.59323462       4.77970386      21.50772305
W        0.00000000       3.18646924      23.10092020
W        1.59323462       4.77970386      24.69409247
W        0.00000000       3.18646924      30.28722219
W        1.59323462       4.77970386      31.88039445
W       -0.00000000       3.18646924      33.47359160
W        1.59323462       4.77970386      35.06675317
W        0.00000000       3.18646924      36.65991262
W        1.59323462       4.77970386      38.25306993
W       -0.00000000       3.18646924      39.84619098
W        1.59323462       4.77970386      41.43935752
W        0.00000000       3.18646924      43.03257573
W        1.59323462       4.77970386      44.62579090
W       -0.00000000       3.18646924      46.21898917
W        1.59323462       4.77970386      47.81217106
W       -0.00000000       3.18646924      49.40531270
W        1.59323462       4.77970386      50.99841490
W        0.00000000       3.18646924      52.59156822
W        1.59323462       4.77970386      54.18474189
W       -0.00000000       6.37293849       0.79657277
W        1.59323462       7.96617311       2.38974643
W        0.00000000       6.37293849       3.98289976
W        1.59323462       7.96617311       5.57600196
W       -0.00000000       6.37293849       7.16914360
W        1.59323462       7.96617311       8.76232548
W        0.00000000       6.37293849      10.35552376
W        1.59323462       7.96617311      11.94873892
W       -0.00000000       6.37293849      13.54195714
W        1.59323462       7.96617311      15.13512368
W        0.00000000       6.37293849      16.72824473
W        1.59323462       7.96617311      18.32140203
W        0.00000000       6.37293849      19.91456148
W        1.59323462       7.96617311      21.50772305
W       -0.00000000       6.37293849      23.10092020
W        1.59323462       7.96617311      24.69409247
W       -0.00000000       6.37293849      30.28722219
W        1.59323462       7.96617311      31.88039445
W        0.00000000       6.37293849      33.47359160
W        1.59323462       7.96617311      35.06675317
W        0.00000000       6.37293849      36.65991262
W        1.59323462       7.96617311      38.25306993
W        0.00000000       6.37293849      39.84619098
W        1.59323462       7.96617311      41.43935752
W        0.00000000       6.37293849      43.03257573
W        1.59323462       7.96617311      44.62579090
W        0.00000000       6.37293849      46.21898917
W        1.59323462       7.96617311      47.81217106
W       -0.00000000       6.37293849      49.40531270
W        1.59323462       7.96617311      50.99841490
W        0.00000000       6.37293849      52.59156822
W        1.59323462       7.96617311      54.18474189
W        3.18646924       0.00000000       0.79657277
W        4.77970386       1.59323462       2.38974643
W        3.18646924      -0.00000000       3.98289976
W        4.77970386       1.59323462       5.57600196
W        3.18646924       0.00000000       7.16914360
W        4.77970386       1.59323462       8.76232548
W        3.18646924       0.00000000      10.35552376
W        4.77970386       1.59323462      11.94873892
W        3.18646924       0.00000000      13.54195714
W        4.77970386       1.59323462      15.13512368
W        3.18646924       0.00000000      16.72824473
W        4.77970386       1.59323462      18.32140203
W        3.18646924      -0.00000000      19.91456148
W        4.77970386       1.59323462      21.50772305
W        3.18646924       0.00000000      23.10092020
W        4.77970386       1.59323462      24.69409247
W        3.18646924       0.00000000      30.28722219
W        4.77970386       1.59323462      31.88039445
W        3.18646924      -0.00000000      33.47359160
W        4.77970386       1.59323462      35.06675317
W        3.18646924       0.00000000      36.65991262
W        4.77970386       1.59323462      38.25306993
W        3.18646924       0.00000000      39.84619098
W        4.77970386       1.59323462      41.43935752
W        3.18646924       0.00000000      43.03257573
W        4.77970386       1.59323462      44.62579090
W        3.18646924      -0.00000000      46.21898917
W        4.77970386       1.59323462      47.81217106
W        3.18646924       0.00000000      49.40531270
W        4.77970386       1.59323462      50.99841490
W        3.18646924       0.00000000      52.59156822
W        4.77970386       1.59323462      54.18474189
W        3.18646924       3.18646924       0.79657277
W        4.77970386       4.77970386       2.38974643
W        3.18646924       3.18646924       3.98289976
W        4.77970386       4.77970386       5.57600196
W        3.18646924       3.18646924       7.16914360
W        4.77970386       4.77970386       8.76232548
W        3.18646924       3.18646924      10.35552376
W        4.77970386       4.77970386      11.94873892
W        3.18646924       3.18646924      13.54195714
W        4.77970386       4.77970386      15.13512368
W        3.18646924       3.18646924      16.72824473
W        4.77970386       4.77970386      18.32140203
W        3.18646924       3.18646924      19.91456148
W        4.77970386       4.77970386      21.50772305
W        3.18646924       3.18646924      23.10092020
W        4.77970386       4.77970386      24.69409247
W        3.18646924       3.18646924      30.28722219
W        4.77970386       4.77970386      31.88039445
W        3.18646924       3.18646924      33.47359160
W        4.77970386       4.77970386      35.06675317
W        3.18646924       3.18646924      36.65991262
W        4.77970386       4.77970386      38.25306993
W        3.18646924       3.18646924      39.84619098
W        4.77970386       4.77970386      41.43935752
W        3.18646924       3.18646924      43.03257573
W        4.77970386       4.77970386      44.62579090
W        3.18646924       3.18646924      46.21898917
W        4.77970386       4.77970386      47.81217106
W        3.18646924       3.18646924      49.40531270
W        4.77970386       4.77970386      50.99841490
W        3.18646924       3.18646924      52.59156822
W        4.77970386       4.77970386      54.18474189
W        3.18646924       6.37293849       0.79657277
W        4.77970386       7.96617311       2.38974643
W        3.18646924       6.37293849       3.98289976
W        4.77970386       7.96617311       5.57600196
W        3.18646924       6.37293849       7.16914360
W        4.77970386       7.96617311       8.76232548
W        3.18646924       6.37293849      10.35552376
W        4.77970386       7.96617311      11.94873892
W        3.18646924       6.37293849      13.54195714
W        4.77970386       7.96617311      15.13512368
W        3.18646924       6.37293849      16.72824473
W        4.77970386       7.96617311      18.32140203
W        3.18646924       6.37293849      19.91456148
W        4.77970386       7.96617311      21.50772305
W        3.18646924       6.37293849      23.10092020
W        4.77970386       7.96617311      24.69409247
W        3.18646924       6.37293849      30.28722219
W        4.77970386       7.96617311      31.88039445
W        3.18646924       6.37293849      33.47359160
W        4.77970386       7.96617311      35.06675317
W        3.18646924       6.37293849      36.65991262
W        4.77970386       7.96617311      38.25306993
W        3.18646924       6.37293849      39.84619098
W        4.77970386       7.96617311      41.43935752
W        3.18646924       6.37293849      43.03257573
W        4.77970386       7.96617311      44.62579090
W        3.18646924       6.37293849      46.21898917
W        4.77970386       7.96617311      47.81217106
W        3.18646924       6.37293849      49.40531270
W        4.77970386       7.96617311      50.99841490
W        3.18646924       6.37293849      52.59156822
W        4.77970386       7.96617311      54.18474189
W        6.37293849       0.00000000       0.79657277
W        7.96617311       1.59323462       2.38974643
W        6.37293849       0.00000000       3.98289976
W        7.96617311       1.59323462       5.57600196
W        6.37293849       0.00000000       7.16914360
W        7.96617311       1.59323462       8.76232548
W        6.37293849      -0.00000000      10.35552376
W        7.96617311       1.59323462      11.94873892
W        6.37293849       0.00000000      13.54195714
W        7.96617311       1.59323462      15.13512368
W        6.37293849      -0.00000000      16.72824473
W        7.96617311       1.59323462      18.32140203
W        6.37293849       0.00000000      19.91456148
W        7.96617311       1.59323462      21.50772305
W        6.37293849       0.00000000      23.10092020
W        7.96617311       1.59323462      24.69409247
W        6.37293849       0.00000000      30.28722219
W        7.96617311       1.59323462      31.88039445
W        6.37293849       0.00000000      33.47359160
W        7.96617311       1.59323462      35.06675317
W        6.37293849      -0.00000000      36.65991262
W        7.96617311       1.59323462      38.25306993
W        6.37293849       0.00000000      39.84619098
W        7.96617311       1.59323462      41.43935752
W        6.37293849      -0.00000000      43.03257573
W        7.96617311       1.59323462      44.62579090
W        6.37293849       0.00000000      46.21898917
W        7.96617311       1.59323462      47.81217106
W        6.37293849       0.00000000      49.40531270
W        7.96617311       1.59323462      50.99841490
W        6.37293849      -0.00000000      52.59156822
W        7.96617311       1.59323462      54.18474189
W        6.37293849       3.18646924       0.79657277
W        7.96617311       4.77970386       2.38974643
W        6.37293849       3.18646924       3.98289976
W        7.96617311       4.77970386       5.57600196
W        6.37293849       3.18646924       7.16914360
W        7.96617311       4.77970386       8.76232548
W        6.37293849       3.18646924      10.35552376
W        7.96617311       4.77970386      11.94873892
W        6.37293849       3.18646924      13.54195714
W        7.96617311       4.77970386      15.13512368
W        6.37293849       3.18646924      16.72824473
W        7.96617311       4.77970386      18.32140203
W        6.37293849       3.18646924      19.91456148
W        7.96617311       4.77970386      21.50772305
W        6.37293849       3.18646924      23.10092020
W        7.96617311       4.77970386      24.69409247
W        6.37293849       3.18646924      30.28722219
W        7.96617311       4.77970386      31.88039445
W        6.37293849       3.18646924      33.47359160
W        7.96617311       4.77970386      35.06675317
W        6.37293849       3.18646924      36.65991262
W        7.96617311       4.77970386      38.25306993
W        6.37293849       3.18646924      39.84619098
W        7.96617311       4.77970386      41.43935752
W        6.37293849       3.18646924      43.03257573
W        7.96617311       4.77970386      44.62579090
W        6.37293849       3.18646924      46.21898917
W        7.96617311       4.77970386      47.81217106
W        6.37293849       3.18646924      49.40531270
W        7.96617311       4.77970386      50.99841490
W        6.37293849       3.18646924      52.59156822
W        7.96617311       4.77970386      54.18474189
W        6.37293849       6.37293849       0.79657277
W        7.96617311       7.96617311       2.38974643
W        6.37293849       6.37293849       3.98289976
W        7.96617311       7.96617311       5.57600196
W        6.37293849       6.37293849       7.16914360
W        7.96617311       7.96617311       8.76232548
W        6.37293849       6.37293849      10.35552376
W        7.96617311       7.96617311      11.94873892
W        6.37293849       6.37293849      13.54195714
W        7.96617311       7.96617311      15.13512368
W        6.37293849       6.37293849      16.72824473
W        7.96617311       7.96617311      18.32140203
W        6.37293849       6.37293849      19.91456148
W        7.96617311       7.96617311      21.50772305
W        6.37293849       6.37293849      23.10092020
W        7.96617311       7.96617311      24.69409247
W        6.37293849       6.37293849      30.28722219
W        7.96617311       7.96617311      31.88039445
W        6.37293849       6.37293849      33.47359160
W        7.96617311       7.96617311      35.06675317
W        6.37293849       6.37293849      36.65991262
W        7.96617311       7.96617311      38.25306993
W        6.37293849       6.37293849      39.84619098
W        7.96617311       7.96617311      41.43935752
W        6.37293849       6.37293849      43.03257573
W        7.96617311       7.96617311      44.62579090
W        6.37293849       6.37293849      46.21898917
W        7.96617311       7.96617311      47.81217106
W        6.37293849       6.37293849      49.40531270
W        7.96617311       7.96617311      50.99841490
W        6.37293849       6.37293849      52.59156822
W        7.96617311       7.96617311      54.18474189
