288
Lattice="9.559407760912599 1.5551574685670926e-18 -1.2681778328733722e-17 1.5551574685670926e-18 9.559407760912599 -3.802032394954696e-17 -6.226046143134533e-17 -1.9250595450418562e-16 50.98131426014024" Properties=species:S:1:pos:R:3 vacuum_gap_Ang=0.0 frame_index=0 pbc="T T T"
W       -0.00000000       0.00000000       0.79657260
W        1.59323463       1.59323463       2.38974621
W       -0.00000000       0.00000000       3.98289982
W        1.59323463       1.59323463       5.57600194
W        0.00000000       0.00000000       7.16914343
W        1.59323463       1.59323463       8.76232545
W       -0.00000000      -0.00000000      10.35552367
W        1.59323463       1.59323463      11.94873874
W        0.00000000      -0.00000000      13.54195690
W        1.59323463       1.59323463      15.13512341
W        0.00000000       0.00000000      16.72824439
W        1.59323463       1.59323463      18.32140151
W        0.00000000       0.00000000      19.91456100
W        1.59323463       1.59323463      21.50772269
W       -0.00000000      -0.00000000      23.10091978
W        1.59323463       1.59323463      24.69409217
W        0.00000000       0.00000000      26.28722209
W        1.59323463       1.59323463      27.88039448
W        0.00000000      -0.00000000      29.47359157
W        1.59323463       1.59323463      31.06675326
W        0.00000000       0.00000000      32.65991275
W        1.59323463       1.59323463      34.25306987
W        0.00000000      -0.00000000      35.84619085
W        1.59323463       1.59323463      37.43935736
W       -0.00000000      -0.00000000      39.03257552
W        1.59323463       1.59323463      40.62579059
W        0.00000000      -0.00000000      42.21898881
W        1.59323463       1.59323463      43.81217083
W        0.00000000      -0.00000000      45.40531232
W        1.59323463       1.59323463      46.99841444
W       -0.00000000      -0.00000000      48.59156805
W        1.59323463       1.59323463      50.18474166
W       -0.00000000       3.18646925       0.79657260
W        1.59323463       4.77970388       2.38974621
W       -0.00000000       3.18646925       3.98289982
W        1.59323463       4.77970388       5.57600194
W        0.00000000       3.18646925       7.16914343
W        1.59323463       4.77970388       8.76232545
W        0.00000000       3.18646925      10.35552367
W        1.59323463       4.77970388      11.94873874
W       -0.00000000       3.18646925      13.54195690
W        1.59323463       4.77970388      15.13512341
W       -0.00000000       3.18646925      16.72824439
W        1.59323463       4.77970388      18.32140151
W        0.00000000       3.18646925      19.91456100
W        1.59323463       4.77970388      21.50772269
W        0.00000000       3.18646925      23.10091978
W        1.59323463       4.77970388      24.69409217
W        0.00000000       3.18646925      26.28722209
W        1.59323463       4.77970388      27.88039448
W       -0.00000000       3.18646925      29.47359157
W        1.59323463       4.77970388      31.06675326
W        0.00000000       3.18646925      32.65991275
W        1.59323463       4.77970388      34.25306987
W        0.00000000       3.18646925      35.84619085
W        1.59323463       4.77970388      37.43935736
W        0.00000000       3.18646925      39.03257552
W        1.59323463       4.77970388      40.62579059
W        0.00000000       3.18646925      42.21898881
W        1.59323463       4.77970388      43.81217083
W        0.00000000       3.18646925      45.40531232
W        1.59323463       4.77970388      46.99841444
W        0.00000000       3.18646925      48.59156805
W        1.59323463       4.77970388      50.18474166
W        0.00000000       6.37293851       0.79657260
W        1.59323463       7.96617313       2.38974621
W       -0.00000000       6.37293851       3.98289982
W        1.59323463       7.96617313       5.57600194
W        0.00000000       6.37293851       7.16914343
W        1.59323463       7.96617313       8.76232545
W       -0.00000000       6.37293851      10.35552367
W        1.59323463       7.96617313      11.94873874
W        0.00000000       6.37293851      13.54195690
W        1.59323463       7.96617313      15.13512341
W       -0.00000000       6.37293851      16.72824439
W        1.59323463       7.96617313      18.32140151
W        0.00000000       6.37293851      19.91456100
W        1.59323463       7.96617313      21.50772269
W        0.00000000       6.37293851      23.10091978
W        1.59323463       7.96617313      24.69409217
W       -0.00000000       6.37293851      26.28722209
W        1.59323463       7.96617313      27.88039448
W        0.00000000       6.37293851      29.47359157
W        1.59323463       7.96617313      31.06675326
W       -0.00000000       6.37293851      32.65991275
W        1.59323463       7.96617313      34.25306987
W        0.00000000       6.37293851      35.84619085
W        1.59323463       7.96617313      37.43935736
W       -0.00000000       6.37293851      39.03257552
W        1.59323463       7.96617313      40.62579059
W        0.00000000       6.37293851      42.21898881
W        1.59323463       7.96617313      43.81217083
W       -0.00000000       6.37293851      45.40531232
W        1.59323463       7.96617313      46.99841444
W       -0.00000000       6.37293851      48.59156805
W        1.59323463       7.96617313      50.18474166
W        3.18646925      -0.00000000       0.79657260
W        4.77970388       1.59323463       2.38974621
W        3.18646925       0.00000000       3.98289982
W        4.77970388       1.59323463       5.57600194
W        3.18646925       0.00000000       7.16914343
W        4.77970388       1.59323463       8.76232545
W        3.18646925       0.00000000      10.35552367
W        4.77970388       1.59323463      11.94873874
W        3.18646925       0.00000000      13.54195690
W        4.77970388       1.59323463      15.13512341
W        3.18646925      -0.00000000      16.72824439
W        4.77970388       1.59323463      18.32140151
W        3.18646925      -0.00000000      19.91456100
W        4.77970388       1.59323463      21.50772269
W        3.18646925       0.00000000      23.10091978
W        4.77970388       1.59323463      24.69409217
W        3.18646925       0.00000000      26.28722209
W        4.77970388       1.59323463      27.88039448
W        3.18646925      -0.00000000      29.47359157
W        4.77970388       1.59323463      31.06675326
W        3.18646925       0.00000000      32.65991275
W        4.77970388       1.59323463      34.25306987
W        3.18646925      -0.00000000      35.84619085
W        4.77970388       1.59323463      37.43935736
W        3.18646925       0.00000000      39.03257552
W        4.77970388       1.59323463      40.62579059
W        3.18646925      -0.00000000      42.21898881
W        4.77970388       1.59323463      43.81217083
W        3.18646925       0.00000000      45.40531232
W        4.77970388       1.59323463      46.99841444
W        3.18646925       0.00000000      48.59156805
W        4.77970388       1.59323463      50.18474166
W        3.18646925       3.18646925       0.79657260
W        4.77970388       4.77970388       2.38974621
W        3.18646925       3.18646925       3.98289982
W        4.77970388       4.77970388       5.57600194
W        3.18646925       3.18646925       7.16914343
W        4.77970388       4.77970388       8.76232545
W        3.18646925       3.18646925      10.35552367
W        4.77970388       4.77970388      11.94873874
W        3.18646925       3.18646925      13.54195690
W        4.77970388       4.77970388      15.13512341
W        3.18646925       3.18646925      16.72824439
W        4.77970388       4.77970388      18.32140151
W        3.18646925       3.18646925      19.91456100
W        4.77970388       4.77970388      21.50772269
W        3.18646925       3.18646925      23.10091978
W        4.77970388       4.77970388      24.69409217
W        3.18646925       3.18646925      26.28722209
W        4.77970388       4.77970388      27.88039448
W        3.18646925       3.18646925      29.47359157
W        4.77970388       4.77970388      31.06675326
W        3.18646925       3.18646925      32.65991275
W        4.77970388       4.77970388      34.25306987
W        3.18646925       3.18646925      35.84619085
W        4.77970388       4.77970388      37.43935736
W        3.18646925       3.18646925      39.03257552
W        4.77970388       4.77970388      40.62579059
W        3.18646925       3.18646925      42.21898881
W        4.77970388       4.77970388      43.81217083
W        3.18646925       3.18646925      45.40531232
W        4.77970388       4.77970388      46.99841444
W        3.18646925       3.18646925      48.59156805
W        4.77970388       4.77970388      50.18474166
W        3.18646925       6.37293851       0.79657260
W        4.77970388       7.96617313       2.38974621
W        3.18646925       6.37293851       3.98289982
W        4.77970388       7.96617313       5.57600194
W        3.18646925       6.37293851       7.16914343
W        4.77970388       7.96617313       8.76232545
W        3.18646925       6.37293851      10.35552367
W        4.77970388       7.96617313      11.94873874
W        3.18646925       6.37293851      13.54195690
W        4.77970388       7.96617313      15.13512341
W        3.18646925       6.37293851      16.72824439
W        4.77970388       7.96617313      18.32140151
W        3.18646925       6.37293851      19.91456100
W        4.77970388       7.96617313      21.50772269
W        3.18646925       6.37293851      23.10091978
W        4.77970388       7.96617313      24.69409217
W        3.18646925       6.37293851      26.28722209
W        4.77970388       7.96617313      27.88039448
W        3.18646925       6.37293851      29.47359157
W        4.77970388       7.96617313      31.06675326
W        3.18646925       6.37293851      32.65991275
W        4.77970388       7.96617313      34.25306987
W        3.18646925       6.37293851      35.84619085
W        4.77970388       7.96617313      37.43935736
W        3.18646925       6.37293851      39.03257552
W        4.77970388       7.96617313      40.62579059
W        3.18646925       6.37293851      42.21898881
W        4.77970388       7.96617313      43.81217083
W        3.18646925       6.37293851      45.40531232
W        4.77970388       7.96617313      46.99841444
W        3.18646925       6.37293851      48.59156805
W        4.77970388       7.96617313      50.18474166
W        6.37293851       0.00000000       0.79657260
W        7.96617313       1.59323463       2.38974621
W        6.37293851       0.00000000       3.98289982
W        7.96617313       1.59323463       5.57600194
W        6.37293851       0.00000000       7.16914343
W        7.96617313       1.59323463       8.76232545
W        6.37293851      -0.00000000      10.35552367
W        7.96617313       1.59323463      11.94873874
W        6.37293851       0.00000000      13.54195690
W        7.96617313       1.59323463      15.13512341
W        6.37293851      -0.00000000      16.72824439
W        7.96617313       1.59323463      18.32140151
W        6.37293851      -0.00000000      19.91456100
W        7.96617313       1.59323463      21.50772269
W        6.37293851       0.00000000      23.10091978
W        7.96617313       1.59323463      24.69409217
W        6.37293851      -0.00000000      26.28722209
W        7.96617313       1.59323463      27.88039448
W        6.37293851       0.00000000      29.47359157
W        7.96617313       1.59323463      31.06675326
W        6.37293851      -0.00000000      32.65991275
W        7.96617313       1.59323463      34.25306987
W        6.37293851       0.00000000      35.84619085
W        7.96617313       1.59323463      37.43935736
W        6.37293851      -0.00000000      39.03257552
W        7.96617313       1.59323463      40.62579059
W        6.37293851      -0.00000000      42.21898881
W        7.96617313       1.59323463      43.81217083
W        6.37293851      -0.00000000      45.40531232
W        7.96617313       1.59323463      46.99841444
W        6.37293851       0.00000000      48.59156805
W        7.96617313       1.59323463      50.18474166
W        6.37293851       3.18646925       0.79657260
W        7.96617313       4.77970388       2.38974621
W        6.37293851       3.18646925       3.98289982
W        7.96617313       4.77970388       5.57600194
W        6.37293851       3.18646925       7.16914343
W        7.96617313       4.77970388       8.76232545
W        6.37293851       3.18646925      10.35552367
W        7.96617313       4.77970388      11.94873874
W        6.37293851       3.18646925      13.54195690
W        7.96617313       4.77970388      15.13512341
W        6.37293851       3.18646925      16.72824439
W        7.96617313       4.77970388      18.32140151
W        6.37293851       3.18646925      19.91456100
W        7.96617313       4.77970388      21.50772269
W        6.37293851       3.18646925      23.10091978
W        7.96617313       4.77970388      24.69409217
W        6.37293851       3.18646925      26.28722209
W        7.96617313       4.77970388      27.88039448
W        6.37293851       3.18646925      29.47359157
W        7.96617313       4.77970388      31.06675326
W        6.37293851       3.18646925      32.65991275
W        7.96617313       4.77970388      34.25306987
W        6.37293851       3.18646925      35.84619085
W        7.96617313       4.77970388      37.43935736
W        6.37293851       3.18646925      39.03257552
W        7.96617313       4.77970388      40.62579059
W        6.37293851       3.18646925      42.21898881
W        7.96617313       4.77970388      43.81217083
W        6.37293851       3.18646925      45.40531232
W        7.96617313       4.77970388      46.99841444
W        6.37293851       3.18646925      48.59156805
W        7.96617313       4.77970388      50.18474166
W        6.37293851       6.37293851       0.79657260
W        7.96617313       7.96617313       2.38974621
W        6.37293851       6.37293851       3.98289982
W        7.96617313       7.96617313       5.57600194
W        6.37293851       6.37293851       7.16914343
W        7.96617313       7.96617313       8.76232545
W        6.37293851       6.37293851      10.35552367
W        7.96617313       7.96617313      11.94873874
W        6.37293851       6.37293851      13.54195690
W        7.96617313       7.96617313      15.13512341
W        6.37293851       6.37293851      16.72824439
W        7.96617313       7.96617313      18.32140151
W        6.37293851       6.37293851      19.91456100
W        7.96617313       7.96617313      21.50772269
W        6.37293851       6.37293851      23.10091978
W        7.96617313       7.96617313      24.69409217
W        6.37293851       6.37293851      26.28722209
W        7.96617313       7.96617313      27.88039448
W        6.37293851       6.37293851      29.47359157
W        7.96617313       7.96617313      31.06675326
W        6.37293851       6.37293851      32.65991275
W        7.96617313       7.96617313      34.25306987
W        6.37293851       6.37293851      35.84619085
W        7.96617313       7.96617313      37.43935736
W        6.37293851       6.37293851      39.03257552
W        7.96617313       7.96617313      40.62579059
W        6.37293851       6.37293851      42.21898881
W        7.96617313       7.96617313      43.81217083
W        6.37293851       6.37293851      45.40531232
W        7.96617313       7.96617313      46.99841444
W        6.37293851       6.37293851      48.59156805
W        7.96617313       7.96617313      50.18474166
288
Lattice="9.559407760912599 1.5551574685670926e-18 -1.2681778328733722e-17 1.5551574685670926e-18 9.559407760912599 -3.802032394954696e-17 -6.226046143134533e-17 -1.9250595450418562e-16 51.08387836270434" Properties=species:S:1:pos:R:3 vacuum_gap_Ang=0.10256410256410256 frame_index=1 pbc="T T T"
W       -0.00000000       0.00000000       0.79657260
W        1.59323463       1.59323463       2.38974621
W       -0.00000000       0.00000000       3.98289982
W        1.59323463       1.59323463       5.57600194
W        0.00000000       0.00000000       7.16914343
W        1.59323463       1.59323463       8.76232545
W       -0.00000000      -0.00000000      10.35552367
W        1.59323463       1.59323463      11.94873874
W        0.00000000      -0.00000000      13.54195690
W        1.59323463       1.59323463      15.13512341
W        0.00000000       0.00000000      16.72824439
W        1.59323463       1.59323463      18.32140151
W        0.00000000       0.00000000      19.91456100
W        1.59323463       1.59323463      21.50772269
W       -0.00000000      -0.00000000      23.10091978
W        1.59323463       1.59323463      24.69409217
W        0.00000000       0.00000000      26.38978620
W        1.59323463       1.59323463      27.98295858
W        0.00000000      -0.00000000      29.57615567
W        1.59323463       1.59323463      31.16931736
W        0.00000000       0.00000000      32.76247685
W        1.59323463       1.59323463      34.35563398
W        0.00000000      -0.00000000      35.94875496
W        1.59323463       1.59323463      37.54192147
W       -0.00000000      -0.00000000      39.13513962
W        1.59323463       1.59323463      40.72835469
W        0.00000000      -0.00000000      42.32155291
W        1.59323463       1.59323463      43.91473493
W        0.00000000      -0.00000000      45.50787643
W        1.59323463       1.59323463      47.10097854
W       -0.00000000      -0.00000000      48.69413215
W        1.59323463       1.59323463      50.28730576
W       -0.00000000       3.18646925       0.79657260
W        1.59323463       4.77970388       2.38974621
W       -0.00000000       3.18646925       3.98289982
W        1.59323463       4.77970388       5.57600194
W        0.00000000       3.18646925       7.16914343
W        1.59323463       4.77970388       8.76232545
W        0.00000000       3.18646925      10.35552367
W        1.59323463       4.77970388      11.94873874
W       -0.00000000       3.18646925      13.54195690
W        1.59323463       4.77970388      15.13512341
W       -0.00000000       3.18646925      16.72824439
W        1.59323463       4.77970388      18.32140151
W        0.00000000       3.18646925      19.91456100
W        1.59323463       4.77970388      21.50772269
W        0.00000000       3.18646925      23.10091978
W        1.59323463       4.77970388      24.69409217
W        0.00000000       3.18646925      26.38978620
W        1.59323463       4.77970388      27.98295858
W       -0.00000000       3.18646925      29.57615567
W        1.59323463       4.77970388      31.16931736
W        0.00000000       3.18646925      32.76247685
W        1.59323463       4.77970388      34.35563398
W        0.00000000       3.18646925      35.94875496
W        1.59323463       4.77970388      37.54192147
W        0.00000000       3.18646925      39.13513962
W        1.59323463       4.77970388      40.72835469
W        0.00000000       3.18646925      42.32155291
W        1.59323463       4.77970388      43.91473493
W        0.00000000       3.18646925      45.50787643
W        1.59323463       4.77970388      47.10097854
W        0.00000000       3.18646925      48.69413215
W        1.59323463       4.77970388      50.28730576
W        0.00000000       6.37293851       0.79657260
W        1.59323463       7.96617313       2.38974621
W       -0.00000000       6.37293851       3.98289982
W        1.59323463       7.96617313       5.57600194
W        0.00000000       6.37293851       7.16914343
W        1.59323463       7.96617313       8.76232545
W       -0.00000000       6.37293851      10.35552367
W        1.59323463       7.96617313      11.94873874
W        0.00000000       6.37293851      13.54195690
W        1.59323463       7.96617313      15.13512341
W       -0.00000000       6.37293851      16.72824439
W        1.59323463       7.96617313      18.32140151
W        0.00000000       6.37293851      19.91456100
W        1.59323463       7.96617313      21.50772269
W        0.00000000       6.37293851      23.10091978
W        1.59323463       7.96617313      24.69409217
W       -0.00000000       6.37293851      26.38978620
W        1.59323463       7.96617313      27.98295858
W        0.00000000       6.37293851      29.57615567
W        1.59323463       7.96617313      31.16931736
W       -0.00000000       6.37293851      32.76247685
W        1.59323463       7.96617313      34.35563398
W        0.00000000       6.37293851      35.94875496
W        1.59323463       7.96617313      37.54192147
W       -0.00000000       6.37293851      39.13513962
W        1.59323463       7.96617313      40.72835469
W        0.00000000       6.37293851      42.32155291
W        1.59323463       7.96617313      43.91473493
W       -0.00000000       6.37293851      45.50787643
W        1.59323463       7.96617313      47.10097854
W       -0.00000000       6.37293851      48.69413215
W        1.59323463       7.96617313      50.28730576
W        3.18646925      -0.00000000       0.79657260
W        4.77970388       1.59323463       2.38974621
W        3.18646925       0.00000000       3.98289982
W        4.77970388       1.59323463       5.57600194
W        3.18646925       0.00000000       7.16914343
W        4.77970388       1.59323463       8.76232545
W        3.18646925       0.00000000      10.35552367
W        4.77970388       1.59323463      11.94873874
W        3.18646925       0.00000000      13.54195690
W        4.77970388       1.59323463      15.13512341
W        3.18646925      -0.00000000      16.72824439
W        4.77970388       1.59323463      18.32140151
W        3.18646925      -0.00000000      19.91456100
W        4.77970388       1.59323463      21.50772269
W        3.18646925       0.00000000      23.10091978
W        4.77970388       1.59323463      24.69409217
W        3.18646925       0.00000000      26.38978620
W        4.77970388       1.59323463      27.98295858
W        3.18646925      -0.00000000      29.57615567
W        4.77970388       1.59323463      31.16931736
W        3.18646925       0.00000000      32.76247685
W        4.77970388       1.59323463      34.35563398
W        3.18646925      -0.00000000      35.94875496
W        4.77970388       1.59323463      37.54192147
W        3.18646925       0.00000000      39.13513962
W        4.77970388       1.59323463      40.72835469
W        3.18646925      -0.00000000      42.32155291
W        4.77970388       1.59323463      43.91473493
W        3.18646925       0.00000000      45.50787643
W        4.77970388       1.59323463      47.10097854
W        3.18646925       0.00000000      48.69413215
W        4.77970388       1.59323463      50.28730576
W        3.18646925       3.18646925       0.79657260
W        4.77970388       4.77970388       2.38974621
W        3.18646925       3.18646925       3.98289982
W        4.77970388       4.77970388       5.57600194
W        3.18646925       3.18646925       7.16914343
W        4.77970388       4.77970388       8.76232545
W        3.18646925       3.18646925      10.35552367
W        4.77970388       4.77970388      11.94873874
W        3.18646925       3.18646925      13.54195690
W        4.77970388       4.77970388      15.13512341
W        3.18646925       3.18646925      16.72824439
W        4.77970388       4.77970388      18.32140151
W        3.18646925       3.18646925      19.91456100
W        4.77970388       4.77970388      21.50772269
W        3.18646925       3.18646925      23.10091978
W        4.77970388       4.77970388      24.69409217
W        3.18646925       3.18646925      26.38978620
W        4.77970388       4.77970388      27.98295858
W        3.18646925       3.18646925      29.57615567
W        4.77970388       4.77970388      31.16931736
W        3.18646925       3.18646925      32.76247685
W        4.77970388       4.77970388      34.35563398
W        3.18646925       3.18646925      35.94875496
W        4.77970388       4.77970388      37.54192147
W        3.18646925       3.18646925      39.13513962
W        4.77970388       4.77970388      40.72835469
W        3.18646925       3.18646925      42.32155291
W        4.77970388       4.77970388      43.91473493
W        3.18646925       3.18646925      45.50787643
W        4.77970388       4.77970388      47.10097854
W        3.18646925       3.18646925      48.69413215
W        4.77970388       4.77970388      50.28730576
W        3.18646925       6.37293851       0.79657260
W        4.77970388       7.96617313       2.38974621
W        3.18646925       6.37293851       3.98289982
W        4.77970388       7.96617313       5.57600194
W        3.18646925       6.37293851       7.16914343
W        4.77970388       7.96617313       8.76232545
W        3.18646925       6.37293851      10.35552367
W        4.77970388       7.96617313      11.94873874
W        3.18646925       6.37293851      13.54195690
W        4.77970388       7.96617313      15.13512341
W        3.18646925       6.37293851      16.72824439
W        4.77970388       7.96617313      18.32140151
W        3.18646925       6.37293851      19.91456100
W        4.77970388       7.96617313      21.50772269
W        3.18646925       6.37293851      23.10091978
W        4.77970388       7.96617313      24.69409217
W        3.18646925       6.37293851      26.38978620
W        4.77970388       7.96617313      27.98295858
W        3.18646925       6.37293851      29.57615567
W        4.77970388       7.96617313      31.16931736
W        3.18646925       6.37293851      32.76247685
W        4.77970388       7.96617313      34.35563398
W        3.18646925       6.37293851      35.94875496
W        4.77970388       7.96617313      37.54192147
W        3.18646925       6.37293851      39.13513962
W        4.77970388       7.96617313      40.72835469
W        3.18646925       6.37293851      42.32155291
W        4.77970388       7.96617313      43.91473493
W        3.18646925       6.37293851      45.50787643
W        4.77970388       7.96617313      47.10097854
W        3.18646925       6.37293851      48.69413215
W        4.77970388       7.96617313      50.28730576
W        6.37293851       0.00000000       0.79657260
W        7.96617313       1.59323463       2.38974621
W        6.37293851       0.00000000       3.98289982
W        7.96617313       1.59323463       5.57600194
W        6.37293851       0.00000000       7.16914343
W        7.96617313       1.59323463       8.76232545
W        6.37293851      -0.00000000      10.35552367
W        7.96617313       1.59323463      11.94873874
W        6.37293851       0.00000000      13.54195690
W        7.96617313       1.59323463      15.13512341
W        6.37293851      -0.00000000      16.72824439
W        7.96617313       1.59323463      18.32140151
W        6.37293851      -0.00000000      19.91456100
W        7.96617313       1.59323463      21.50772269
W        6.37293851       0.00000000      23.10091978
W        7.96617313       1.59323463      24.69409217
W        6.37293851      -0.00000000      26.38978620
W        7.96617313       1.59323463      27.98295858
W        6.37293851       0.00000000      29.57615567
W        7.96617313       1.59323463      31.16931736
W        6.37293851      -0.00000000      32.76247685
W        7.96617313       1.59323463      34.35563398
W        6.37293851       0.00000000      35.94875496
W        7.96617313       1.59323463      37.54192147
W        6.37293851      -0.00000000      39.13513962
W        7.96617313       1.59323463      40.72835469
W        6.37293851      -0.00000000      42.32155291
W        7.96617313       1.59323463      43.91473493
W        6.37293851      -0.00000000      45.50787643
W        7.96617313       1.59323463      47.10097854
W        6.37293851       0.00000000      48.69413215
W        7.96617313       1.59323463      50.28730576
W        6.37293851       3.18646925       0.79657260
W        7.96617313       4.77970388       2.38974621
W        6.37293851       3.18646925       3.98289982
W        7.96617313       4.77970388       5.57600194
W        6.37293851       3.18646925       7.16914343
W        7.96617313       4.77970388       8.76232545
W        6.37293851       3.18646925      10.35552367
W        7.96617313       4.77970388      11.94873874
W        6.37293851       3.18646925      13.54195690
W        7.96617313       4.77970388      15.13512341
W        6.37293851       3.18646925      16.72824439
W        7.96617313       4.77970388      18.32140151
W        6.37293851       3.18646925      19.91456100
W        7.96617313       4.77970388      21.50772269
W        6.37293851       3.18646925      23.10091978
W        7.96617313       4.77970388      24.69409217
W        6.37293851       3.18646925      26.38978620
W        7.96617313       4.77970388      27.98295858
W        6.37293851       3.18646925      29.57615567
W        7.96617313       4.77970388      31.16931736
W        6.37293851       3.18646925      32.76247685
W        7.96617313       4.77970388      34.35563398
W        6.37293851       3.18646925      35.94875496
W        7.96617313       4.77970388      37.54192147
W        6.37293851       3.18646925      39.13513962
W        7.96617313       4.77970388      40.72835469
W        6.37293851       3.18646925      42.32155291
W        7.96617313       4.77970388      43.91473493
W        6.37293851       3.18646925      45.50787643
W        7.96617313       4.77970388      47.10097854
W        6.37293851       3.18646925      48.69413215
W        7.96617313       4.77970388      50.28730576
W        6.37293851       6.37293851       0.79657260
W        7.96617313       7.96617313       2.38974621
W        6.37293851       6.37293851       3.98289982
W        7.96617313       7.96617313       5.57600194
W        6.37293851       6.37293851       7.16914343
W        7.96617313       7.96617313       8.76232545
W        6.37293851       6.37293851      10.35552367
W        7.96617313       7.96617313      11.94873874
W        6.37293851       6.37293851      13.54195690
W        7.96617313       7.96617313      15.13512341
W        6.37293851       6.37293851      16.72824439
W        7.96617313       7.96617313      18.32140151
W        6.37293851       6.37293851      19.91456100
W        7.96617313       7.96617313      21.50772269
W        6.37293851       6.37293851      23.10091978
W        7.96617313       7.96617313      24.69409217
W        6.37293851       6.37293851      26.38978620
W        7.96617313       7.96617313      27.98295858
W        6.37293851       6.37293851      29.57615567
W        7.96617313       7.96617313      31.16931736
W        6.37293851       6.37293851      32.76247685
W        7.96617313       7.96617313      34.35563398
W        6.37293851       6.37293851      35.94875496
W        7.96617313       7.96617313      37.54192147
W        6.37293851       6.37293851      39.13513962
W        7.96617313       7.96617313      40.72835469
W        6.37293851       6.37293851      42.32155291
W        7.96617313       7.96617313      43.91473493
W        6.37293851       6.37293851      45.50787643
W        7.96617313       7.96617313      47.10097854
W        6.37293851       6.37293851      48.69413215
W        7.96617313       7.96617313      50.28730576
288
Lattice="9.559407760912599 1.5551574685670926e-18 -1.2681778328733722e-17 1.5551574685670926e-18 9.559407760912599 -3.802032394954696e-17 -6.226046143134533e-17 -1.9250595450418562e-16 51.18644246526844" Properties=species:S:1:pos:R:3 vacuum_gap_Ang=0.20512820512820512 frame_index=2 pbc="T T T"
W       -0.00000000       0.00000000       0.79657260
W        1.59323463       1.59323463       2.38974621
W       -0.00000000       0.00000000       3.98289982
W        1.59323463       1.59323463       5.57600194
W        0.00000000       0.00000000       7.16914343
W        1.59323463       1.59323463       8.76232545
W       -0.00000000      -0.00000000      10.35552367
W        1.59323463       1.59323463      11.94873874
W        0.00000000      -0.00000000      13.54195690
W        1.59323463       1.59323463      15.13512341
W        0.00000000       0.00000000      16.72824439
W        1.59323463       1.59323463      18.32140151
W        0.00000000       0.00000000      19.91456100
W        1.59323463       1.59323463      21.50772269
W       -0.00000000      -0.00000000      23.10091978
W        1.59323463       1.59323463      24.69409217
W        0.00000000       0.00000000      26.49235030
W        1.59323463       1.59323463      28.08552268
W        0.00000000      -0.00000000      29.67871977
W        1.59323463       1.59323463      31.27188146
W        0.00000000       0.00000000      32.86504095
W        1.59323463       1.59323463      34.45819808
W        0.00000000      -0.00000000      36.05131906
W        1.59323463       1.59323463      37.64448557
W       -0.00000000      -0.00000000      39.23770372
W        1.59323463       1.59323463      40.83091879
W        0.00000000      -0.00000000      42.42411701
W        1.59323463       1.59323463      44.01729903
W        0.00000000      -0.00000000      45.61044053
W        1.59323463       1.59323463      47.20354265
W       -0.00000000      -0.00000000      48.79669625
W        1.59323463       1.59323463      50.38986987
W       -0.00000000       3.18646925       0.79657260
W        1.59323463       4.77970388       2.38974621
W       -0.00000000       3.18646925       3.98289982
W        1.59323463       4.77970388       5.57600194
W        0.00000000       3.18646925       7.16914343
W        1.59323463       4.77970388       8.76232545
W        0.00000000       3.18646925      10.35552367
W        1.59323463       4.77970388      11.94873874
W       -0.00000000       3.18646925      13.54195690
W        1.59323463       4.77970388      15.13512341
W       -0.00000000       3.18646925      16.72824439
W        1.59323463       4.77970388      18.32140151
W        0.00000000       3.18646925      19.91456100
W        1.59323463       4.77970388      21.50772269
W        0.00000000       3.18646925      23.10091978
W        1.59323463       4.77970388      24.69409217
W        0.00000000       3.18646925      26.49235030
W        1.59323463       4.77970388      28.08552268
W       -0.00000000       3.18646925      29.67871977
W        1.59323463       4.77970388      31.27188146
W        0.00000000       3.18646925      32.86504095
W        1.59323463       4.77970388      34.45819808
W        0.00000000       3.18646925      36.05131906
W        1.59323463       4.77970388      37.64448557
W        0.00000000       3.18646925      39.23770372
W        1.59323463       4.77970388      40.83091879
W        0.00000000       3.18646925      42.42411701
W        1.59323463       4.77970388      44.01729903
W        0.00000000       3.18646925      45.61044053
W        1.59323463       4.77970388      47.20354265
W        0.00000000       3.18646925      48.79669625
W        1.59323463       4.77970388      50.38986987
W        0.00000000       6.37293851       0.79657260
W        1.59323463       7.96617313       2.38974621
W       -0.00000000       6.37293851       3.98289982
W        1.59323463       7.96617313       5.57600194
W        0.00000000       6.37293851       7.16914343
W        1.59323463       7.96617313       8.76232545
W       -0.00000000       6.37293851      10.35552367
W        1.59323463       7.96617313      11.94873874
W        0.00000000       6.37293851      13.54195690
W        1.59323463       7.96617313      15.13512341
W       -0.00000000       6.37293851      16.72824439
W        1.59323463       7.96617313      18.32140151
W        0.00000000       6.37293851      19.91456100
W        1.59323463       7.96617313      21.50772269
W        0.00000000       6.37293851      23.10091978
W        1.59323463       7.96617313      24.69409217
W       -0.00000000       6.37293851      26.49235030
W        1.59323463       7.96617313      28.08552268
W        0.00000000       6.37293851      29.67871977
W        1.59323463       7.96617313      31.27188146
W       -0.00000000       6.37293851      32.86504095
W        1.59323463       7.96617313      34.45819808
W        0.00000000       6.37293851      36.05131906
W        1.59323463       7.96617313      37.64448557
W       -0.00000000       6.37293851      39.23770372
W        1.59323463       7.96617313      40.83091879
W        0.00000000       6.37293851      42.42411701
W        1.59323463       7.96617313      44.01729903
W       -0.00000000       6.37293851      45.61044053
W        1.59323463       7.96617313      47.20354265
W       -0.00000000       6.37293851      48.79669625
W        1.59323463       7.96617313      50.38986987
W        3.18646925      -0.00000000       0.79657260
W        4.77970388       1.59323463       2.38974621
W        3.18646925       0.00000000       3.98289982
W        4.77970388       1.59323463       5.57600194
W        3.18646925       0.00000000       7.16914343
W        4.77970388       1.59323463       8.76232545
W        3.18646925       0.00000000      10.35552367
W        4.77970388       1.59323463      11.94873874
W        3.18646925       0.00000000      13.54195690
W        4.77970388       1.59323463      15.13512341
W        3.18646925      -0.00000000      16.72824439
W        4.77970388       1.59323463      18.32140151
W        3.18646925      -0.00000000      19.91456100
W        4.77970388       1.59323463      21.50772269
W        3.18646925       0.00000000      23.10091978
W        4.77970388       1.59323463      24.69409217
W        3.18646925       0.00000000      26.49235030
W        4.77970388       1.59323463      28.08552268
W        3.18646925      -0.00000000      29.67871977
W        4.77970388       1.59323463      31.27188146
W        3.18646925       0.00000000      32.86504095
W        4.77970388       1.59323463      34.45819808
W        3.18646925      -0.00000000      36.05131906
W        4.77970388       1.59323463      37.64448557
W        3.18646925       0.00000000      39.23770372
W        4.77970388       1.59323463      40.83091879
W        3.18646925      -0.00000000      42.42411701
W        4.77970388       1.59323463      44.01729903
W        3.18646925       0.00000000      45.61044053
W        4.77970388       1.59323463      47.20354265
W        3.18646925       0.00000000      48.79669625
W        4.77970388       1.59323463      50.38986987
W        3.18646925       3.18646925       0.79657260
W        4.77970388       4.77970388       2.38974621
W        3.18646925       3.18646925       3.98289982
W        4.77970388       4.77970388       5.57600194
W        3.18646925       3.18646925       7.16914343
W        4.77970388       4.77970388       8.76232545
W        3.18646925       3.18646925      10.35552367
W        4.77970388       4.77970388      11.94873874
W        3.18646925       3.18646925      13.54195690
W        4.77970388       4.77970388      15.13512341
W        3.18646925       3.18646925      16.72824439
W        4.77970388       4.77970388      18.32140151
W        3.18646925       3.18646925      19.91456100
W        4.77970388       4.77970388      21.50772269
W        3.18646925       3.18646925      23.10091978
W        4.77970388       4.77970388      24.69409217
W        3.18646925       3.18646925      26.49235030
W        4.77970388       4.77970388      28.08552268
W        3.18646925       3.18646925      29.67871977
W        4.77970388       4.77970388      31.27188146
W        3.18646925       3.18646925      32.86504095
W        4.77970388       4.77970388      34.45819808
W        3.18646925       3.18646925      36.05131906
W        4.77970388       4.77970388      37.64448557
W        3.18646925       3.18646925      39.23770372
W        4.77970388       4.77970388      40.83091879
W        3.18646925       3.18646925      42.42411701
W        4.77970388       4.77970388      44.01729903
W        3.18646925       3.18646925      45.61044053
W        4.77970388       4.77970388      47.20354265
W        3.18646925       3.18646925      48.79669625
W        4.77970388       4.77970388      50.38986987
W        3.18646925       6.37293851       0.79657260
W        4.77970388       7.96617313       2.38974621
W        3.18646925       6.37293851       3.98289982
W        4.77970388       7.96617313       5.57600194
W        3.18646925       6.37293851       7.16914343
W        4.77970388       7.96617313       8.76232545
W        3.18646925       6.37293851      10.35552367
W        4.77970388       7.96617313      11.94873874
W        3.18646925       6.37293851      13.54195690
W        4.77970388       7.96617313      15.13512341
W        3.18646925       6.37293851      16.72824439
W        4.77970388       7.96617313      18.32140151
W        3.18646925       6.37293851      19.91456100
W        4.77970388       7.96617313      21.50772269
W        3.18646925       6.37293851      23.10091978
W        4.77970388       7.96617313      24.69409217
W        3.18646925       6.37293851      26.49235030
W        4.77970388       7.96617313      28.08552268
W        3.18646925       6.37293851      29.67871977
W        4.77970388       7.96617313      31.27188146
W        3.18646925       6.37293851      32.86504095
W        4.77970388       7.96617313      34.45819808
W        3.18646925       6.37293851      36.05131906
W        4.77970388       7.96617313      37.64448557
W        3.18646925       6.37293851      39.23770372
W        4.77970388       7.96617313      40.83091879
W        3.18646925       6.37293851      42.42411701
W        4.77970388       7.96617313      44.01729903
W        3.18646925       6.37293851      45.61044053
W        4.77970388       7.96617313      47.20354265
W        3.18646925       6.37293851      48.79669625
W        4.77970388       7.96617313      50.38986987
W        6.37293851       0.00000000       0.79657260
W        7.96617313       1.59323463       2.38974621
W        6.37293851       0.00000000       3.98289982
W        7.96617313       1.59323463       5.57600194
W        6.37293851       0.00000000       7.16914343
W        7.96617313       1.59323463       8.76232545
W        6.37293851      -0.00000000      10.35552367
W        7.96617313       1.59323463      11.94873874
W        6.37293851       0.00000000      13.54195690
W        7.96617313       1.59323463      15.13512341
W        6.37293851      -0.00000000      16.72824439
W        7.96617313       1.59323463      18.32140151
W        6.37293851      -0.00000000      19.91456100
W        7.96617313       1.59323463      21.50772269
W        6.37293851       0.00000000      23.10091978
W        7.96617313       1.59323463      24.69409217
W        6.37293851      -0.00000000      26.49235030
W        7.96617313       1.59323463      28.08552268
W        6.37293851       0.00000000      29.67871977
W        7.96617313       1.59323463      31.27188146
W        6.37293851      -0.00000000      32.86504095
W        7.96617313       1.59323463      34.45819808
W        6.37293851       0.00000000      36.05131906
W        7.96617313       1.59323463      37.64448557
W        6.37293851      -0.00000000      39.23770372
W        7.96617313       1.59323463      40.83091879
W        6.37293851      -0.00000000      42.42411701
W        7.96617313       1.59323463      44.01729903
W        6.37293851      -0.00000000      45.61044053
W        7.96617313       1.59323463      47.20354265
W        6.37293851       0.00000000      48.79669625
W        7.96617313       1.59323463      50.38986987
W        6.37293851       3.18646925       0.79657260
W        7.96617313       4.77970388       2.38974621
W        6.37293851       3.18646925       3.98289982
W        7.96617313       4.77970388       5.57600194
W        6.37293851       3.18646925       7.16914343
W        7.96617313       4.77970388       8.76232545
W        6.37293851       3.18646925      10.35552367
W        7.96617313       4.77970388      11.94873874
W        6.37293851       3.18646925      13.54195690
W        7.96617313       4.77970388      15.13512341
W        6.37293851       3.18646925      16.72824439
W        7.96617313       4.77970388      18.32140151
W        6.37293851       3.18646925      19.91456100
W        7.96617313       4.77970388      21.50772269
W        6.37293851       3.18646925      23.10091978
W        7.96617313       4.77970388      24.69409217
W        6.37293851       3.18646925      26.49235030
W        7.96617313       4.77970388      28.08552268
W        6.37293851       3.18646925      29.67871977
W        7.96617313       4.77970388      31.27188146
W        6.37293851       3.18646925      32.86504095
W        7.96617313       4.77970388      34.45819808
W        6.37293851       3.18646925      36.05131906
W        7.96617313       4.77970388      37.64448557
W        6.37293851       3.18646925      39.23770372
W        7.96617313       4.77970388      40.83091879
W        6.37293851       3.18646925      42.42411701
W        7.96617313       4.77970388      44.01729903
W        6.37293851       3.18646925      45.61044053
W        7.96617313       4.77970388      47.20354265
W        6.37293851       3.18646925      48.79669625
W        7.96617313       4.77970388      50.38986987
W        6.37293851       6.37293851       0.79657260
W        7.96617313       7.96617313       2.38974621
W        6.37293851       6.37293851       3.98289982
W        7.96617313       7.96617313       5.57600194
W        6.37293851       6.37293851       7.16914343
W        7.96617313       7.96617313       8.76232545
W        6.37293851       6.37293851      10.35552367
W        7.96617313       7.96617313      11.94873874
W        6.37293851       6.37293851      13.54195690
W        7.96617313       7.96617313      15.13512341
W        6.37293851       6.37293851      16.72824439
W        7.96617313       7.96617313      18.32140151
W        6.37293851       6.37293851      19.91456100
W        7.96617313       7.96617313      21.50772269
W        6.37293851       6.37293851      23.10091978
W        7.96617313       7.96617313      24.69409217
W        6.37293851       6.37293851      26.49235030
W        7.96617313       7.96617313      28.08552268
W        6.37293851       6.37293851      29.67871977
W        7.96617313       7.96617313      31.27188146
W        6.37293851       6.37293851      32.86504095
W        7.96617313       7.96617313      34.45819808
W        6.37293851       6.37293851      36.05131906
W        7.96617313       7.96617313      37.64448557
W        6.37293851       6.37293851      39.23770372
W        7.96617313       7.96617313      40.83091879
W        6.37293851       6.37293851      42.42411701
W        7.96617313       7.96617313      44.01729903
W        6.37293851       6.37293851      45.61044053
W        7.96617313       7.96617313      47.20354265
W        6.37293851       6.37293851      48.79669625
W        7.96617313       7.96617313      50.38986987
288
Lattice="9.559407760912599 1.5551574685670926e-18 -1.2681778328733722e-17 1.5551574685670926e-18 9.559407760912599 -3.802032394954696e-17 -6.226046143134533e-17 -1.9250595450418562e-16 51.289006567832544" Properties=species:S:1:pos:R:3 vacuum_gap_Ang=0.3076923076923077 frame_index=3 pbc="T T T"
W       -0.00000000       0.00000000       0.79657260
W        1.59323463       1.59323463       2.38974621
W       -0.00000000       0.00000000       3.98289982
W        1.59323463       1.59323463       5.57600194
W        0.00000000       0.00000000       7.16914343
W        1.59323463       1.59323463       8.76232545
W       -0.00000000      -0.00000000      10.35552367
W        1.59323463       1.59323463      11.94873874
W        0.00000000      -0.00000000      13.54195690
W        1.59323463       1.59323463      15.13512341
W        0.00000000       0.00000000      16.72824439
W        1.59323463       1.59323463      18.32140151
W        0.00000000       0.00000000      19.91456100
W        1.59323463       1.59323463      21.50772269
W       -0.00000000      -0.00000000      23.10091978
W        1.59323463       1.59323463      24.69409217
W        0.00000000       0.00000000      26.59491440
W        1.59323463       1.59323463      28.18808678
W        0.00000000      -0.00000000      29.78128387
W        1.59323463       1.59323463      31.37444556
W        0.00000000       0.00000000      32.96760506
W        1.59323463       1.59323463      34.56076218
W        0.00000000      -0.00000000      36.15388316
W        1.59323463       1.59323463      37.74704967
W       -0.00000000      -0.00000000      39.34026782
W        1.59323463       1.59323463      40.93348289
W        0.00000000      -0.00000000      42.52668111
W        1.59323463       1.59323463      44.11986313
W        0.00000000      -0.00000000      45.71300463
W        1.59323463       1.59323463      47.30610675
W       -0.00000000      -0.00000000      48.89926036
W        1.59323463       1.59323463      50.49243397
W       -0.00000000       3.18646925       0.79657260
W        1.59323463       4.77970388       2.38974621
W       -0.00000000       3.18646925       3.98289982
W        1.59323463       4.77970388       5.57600194
W        0.00000000       3.18646925       7.16914343
W        1.59323463       4.77970388       8.76232545
W        0.00000000       3.18646925      10.35552367
W        1.59323463       4.77970388      11.94873874
W       -0.00000000       3.18646925      13.54195690
W        1.59323463       4.77970388      15.13512341
W       -0.00000000       3.18646925      16.72824439
W        1.59323463       4.77970388      18.32140151
W        0.00000000       3.18646925      19.91456100
W        1.59323463       4.77970388      21.50772269
W        0.00000000       3.18646925      23.10091978
W        1.59323463       4.77970388      24.69409217
W        0.00000000       3.18646925      26.59491440
W        1.59323463       4.77970388      28.18808678
W       -0.00000000       3.18646925      29.78128387
W        1.59323463       4.77970388      31.37444556
W        0.00000000       3.18646925      32.96760506
W        1.59323463       4.77970388      34.56076218
W        0.00000000       3.18646925      36.15388316
W        1.59323463       4.77970388      37.74704967
W        0.00000000       3.18646925      39.34026782
W        1.59323463       4.77970388      40.93348289
W        0.00000000       3.18646925      42.52668111
W        1.59323463       4.77970388      44.11986313
W        0.00000000       3.18646925      45.71300463
W        1.59323463       4.77970388      47.30610675
W        0.00000000       3.18646925      48.89926036
W        1.59323463       4.77970388      50.49243397
W        0.00000000       6.37293851       0.79657260
W        1.59323463       7.96617313       2.38974621
W       -0.00000000       6.37293851       3.98289982
W        1.59323463       7.96617313       5.57600194
W        0.00000000       6.37293851       7.16914343
W        1.59323463       7.96617313       8.76232545
W       -0.00000000       6.37293851      10.35552367
W        1.59323463       7.96617313      11.94873874
W        0.00000000       6.37293851      13.54195690
W        1.59323463       7.96617313      15.13512341
W       -0.00000000       6.37293851      16.72824439
W        1.59323463       7.96617313      18.32140151
W        0.00000000       6.37293851      19.91456100
W        1.59323463       7.96617313      21.50772269
W        0.00000000       6.37293851      23.10091978
W        1.59323463       7.96617313      24.69409217
W       -0.00000000       6.37293851      26.59491440
W        1.59323463       7.96617313      28.18808678
W        0.00000000       6.37293851      29.78128387
W        1.59323463       7.96617313      31.37444556
W       -0.00000000       6.37293851      32.96760506
W        1.59323463       7.96617313      34.56076218
W        0.00000000       6.37293851      36.15388316
W        1.59323463       7.96617313      37.74704967
W       -0.00000000       6.37293851      39.34026782
W        1.59323463       7.96617313      40.93348289
W        0.00000000       6.37293851      42.52668111
W        1.59323463       7.96617313      44.11986313
W       -0.00000000       6.37293851      45.71300463
W        1.59323463       7.96617313      47.30610675
W       -0.00000000       6.37293851      48.89926036
W        1.59323463       7.96617313      50.49243397
W        3.18646925      -0.00000000       0.79657260
W        4.77970388       1.59323463       2.38974621
W        3.18646925       0.00000000       3.98289982
W        4.77970388       1.59323463       5.57600194
W        3.18646925       0.00000000       7.16914343
W        4.77970388       1.59323463       8.76232545
W        3.18646925       0.00000000      10.35552367
W        4.77970388       1.59323463      11.94873874
W        3.18646925       0.00000000      13.54195690
W        4.77970388       1.59323463      15.13512341
W        3.18646925      -0.00000000      16.72824439
W        4.77970388       1.59323463      18.32140151
W        3.18646925      -0.00000000      19.91456100
W        4.77970388       1.59323463      21.50772269
W        3.18646925       0.00000000      23.10091978
W        4.77970388       1.59323463      24.69409217
W        3.18646925       0.00000000      26.59491440
W        4.77970388       1.59323463      28.18808678
W        3.18646925      -0.00000000      29.78128387
W        4.77970388       1.59323463      31.37444556
W        3.18646925       0.00000000      32.96760506
W        4.77970388       1.59323463      34.56076218
W        3.18646925      -0.00000000      36.15388316
W        4.77970388       1.59323463      37.74704967
W        3.18646925       0.00000000      39.34026782
W        4.77970388       1.59323463      40.93348289
W        3.18646925      -0.00000000      42.52668111
W        4.77970388       1.59323463      44.11986313
W        3.18646925       0.00000000      45.71300463
W        4.77970388       1.59323463      47.30610675
W        3.18646925       0.00000000      48.89926036
W        4.77970388       1.59323463      50.49243397
W        3.18646925       3.18646925       0.79657260
W        4.77970388       4.77970388       2.38974621
W        3.18646925       3.18646925       3.98289982
W        4.77970388       4.77970388       5.57600194
W        3.18646925       3.18646925       7.16914343
W        4.77970388       4.77970388       8.76232545
W        3.18646925       3.18646925      10.35552367
W        4.77970388       4.77970388      11.94873874
W        3.18646925       3.18646925      13.54195690
W        4.77970388       4.77970388      15.13512341
W        3.18646925       3.18646925      16.72824439
W        4.77970388       4.77970388      18.32140151
W        3.18646925       3.18646925      19.91456100
W        4.77970388       4.77970388      21.50772269
W        3.18646925       3.18646925      23.10091978
W        4.77970388       4.77970388      24.69409217
W        3.18646925       3.18646925      26.59491440
W        4.77970388       4.77970388      28.18808678
W        3.18646925       3.18646925      29.78128387
W        4.77970388       4.77970388      31.37444556
W        3.18646925       3.18646925      32.96760506
W        4.77970388       4.77970388      34.56076218
W        3.18646925       3.18646925      36.15388316
W        4.77970388       4.77970388      37.74704967
W        3.18646925       3.18646925      39.34026782
W        4.77970388       4.77970388      40.93348289
W        3.18646925       3.18646925      42.52668111
W        4.77970388       4.77970388      44.11986313
W        3.18646925       3.18646925      45.71300463
W        4.77970388       4.77970388      47.30610675
W        3.18646925       3.18646925      48.89926036
W        4.77970388       4.77970388      50.49243397
W        3.18646925       6.37293851       0.79657260
W        4.77970388       7.96617313       2.38974621
W        3.18646925       6.37293851       3.98289982
W        4.77970388       7.96617313       5.57600194
W        3.18646925       6.37293851       7.16914343
W        4.77970388       7.96617313       8.76232545
W        3.18646925       6.37293851      10.35552367
W        4.77970388       7.96617313      11.94873874
W        3.18646925       6.37293851      13.54195690
W        4.77970388       7.96617313      15.13512341
W        3.18646925       6.37293851      16.72824439
W        4.77970388       7.96617313      18.32140151
W        3.18646925       6.37293851      19.91456100
W        4.77970388       7.96617313      21.50772269
W        3.18646925       6.37293851      23.10091978
W        4.77970388       7.96617313      24.69409217
W        3.18646925       6.37293851      26.59491440
W        4.77970388       7.96617313      28.18808678
W        3.18646925       6.37293851      29.78128387
W        4.77970388       7.96617313      31.37444556
W        3.18646925       6.37293851      32.96760506
W        4.77970388       7.96617313      34.56076218
W        3.18646925       6.37293851      36.15388316
W        4.77970388       7.96617313      37.74704967
W        3.18646925       6.37293851      39.34026782
W        4.77970388       7.96617313      40.93348289
W        3.18646925       6.37293851      42.52668111
W        4.77970388       7.96617313      44.11986313
W        3.18646925       6.37293851      45.71300463
W        4.77970388       7.96617313      47.30610675
W        3.18646925       6.37293851      48.89926036
W        4.77970388       7.96617313      50.49243397
W        6.37293851       0.00000000       0.79657260
W        7.96617313       1.59323463       2.38974621
W        6.37293851       0.00000000       3.98289982
W        7.96617313       1.59323463       5.57600194
W        6.37293851       0.00000000       7.16914343
W        7.96617313       1.59323463       8.76232545
W        6.37293851      -0.00000000      10.35552367
W        7.96617313       1.59323463      11.94873874
W        6.37293851       0.00000000      13.54195690
W        7.96617313       1.59323463      15.13512341
W        6.37293851      -0.00000000      16.72824439
W        7.96617313       1.59323463      18.32140151
W        6.37293851      -0.00000000      19.91456100
W        7.96617313       1.59323463      21.50772269
W        6.37293851       0.00000000      23.10091978
W        7.96617313       1.59323463      24.69409217
W        6.37293851      -0.00000000      26.59491440
W        7.96617313       1.59323463      28.18808678
W        6.37293851       0.00000000      29.78128387
W        7.96617313       1.59323463      31.37444556
W        6.37293851      -0.00000000      32.96760506
W        7.96617313       1.59323463      34.56076218
W        6.37293851       0.00000000      36.15388316
W        7.96617313       1.59323463      37.74704967
W        6.37293851      -0.00000000      39.34026782
W        7.96617313       1.59323463      40.93348289
W        6.37293851      -0.00000000      42.52668111
W        7.96617313       1.59323463      44.11986313
W        6.37293851      -0.00000000      45.71300463
W        7.96617313       1.59323463      47.30610675
W        6.37293851       0.00000000      48.89926036
W        7.96617313       1.59323463      50.49243397
W        6.37293851       3.18646925       0.79657260
W        7.96617313       4.77970388       2.38974621
W        6.37293851       3.18646925       3.98289982
W        7.96617313       4.77970388       5.57600194
W        6.37293851       3.18646925       7.16914343
W        7.96617313       4.77970388       8.76232545
W        6.37293851       3.18646925      10.35552367
W        7.96617313       4.77970388      11.94873874
W        6.37293851       3.18646925      13.54195690
W        7.96617313       4.77970388      15.13512341
W        6.37293851       3.18646925      16.72824439
W        7.96617313       4.77970388      18.32140151
W        6.37293851       3.18646925      19.91456100
W        7.96617313       4.77970388      21.50772269
W        6.37293851       3.18646925      23.10091978
W        7.96617313       4.77970388      24.69409217
W        6.37293851       3.18646925      26.59491440
W        7.96617313       4.77970388      28.18808678
W        6.37293851       3.18646925      29.78128387
W        7.96617313       4.77970388      31.37444556
W        6.37293851       3.18646925      32.96760506
W        7.96617313       4.77970388      34.56076218
W        6.37293851       3.18646925      36.15388316
W        7.96617313       4.77970388      37.74704967
W        6.37293851       3.18646925      39.34026782
W        7.96617313       4.77970388      40.93348289
W        6.37293851       3.18646925      42.52668111
W        7.96617313       4.77970388      44.11986313
W        6.37293851       3.18646925      45.71300463
W        7.96617313       4.77970388      47.30610675
W        6.37293851       3.18646925      48.89926036
W        7.96617313       4.77970388      50.49243397
W        6.37293851       6.37293851       0.79657260
W        7.96617313       7.96617313       2.38974621
W        6.37293851       6.37293851       3.98289982
W        7.96617313       7.96617313       5.57600194
W        6.37293851       6.37293851       7.16914343
W        7.96617313       7.96617313       8.76232545
W        6.37293851       6.37293851      10.35552367
W        7.96617313       7.96617313      11.94873874
W        6.37293851       6.37293851      13.54195690
W        7.96617313       7.96617313      15.13512341
W        6.37293851       6.37293851      16.72824439
W        7.96617313       7.96617313      18.32140151
W        6.37293851       6.37293851      19.91456100
W        7.96617313       7.96617313      21.50772269
W        6.37293851       6.37293851      23.10091978
W        7.96617313       7.96617313      24.69409217
W        6.37293851       6.37293851      26.59491440
W        7.96617313       7.96617313      28.18808678
W        6.37293851       6.37293851      29.78128387
W        7.96617313       7.96617313      31.37444556
W        6.37293851       6.37293851      32.96760506
W        7.96617313       7.96617313      34.56076218
W        6.37293851       6.37293851      36.15388316
W        7.96617313       7.96617313      37.74704967
W        6.37293851       6.37293851      39.34026782
W        7.96617313       7.96617313      40.93348289
W        6.37293851       6.37293851      42.52668111
W        7.96617313       7.96617313      44.11986313
W        6.37293851       6.37293851      45.71300463
W        7.96617313       7.96617313      47.30610675
W        6.37293851       6.37293851      48.89926036
W        7.96617313       7.96617313      50.49243397
288
Lattice="9.559407760912599 1.5551574685670926e-18 -1.2681778328733722e-17 1.5551574685670926e-18 9.559407760912599 -3.802032394954696e-17 -6.226046143134533e-17 -1.9250595450418562e-16 51.391570670396646" Properties=species:S:1:pos:R:3 vacuum_gap_Ang=0.41025641025641024 frame_index=4 pbc="T T T"
W       -0.00000000       0.00000000       0.79657260
W        1.59323463       1.59323463       2.38974621
W       -0.00000000       0.00000000       3.98289982
W        1.59323463       1.59323463       5.57600194
W        0.00000000       0.00000000       7.16914343
W        1.59323463       1.59323463       8.76232545
W       -0.00000000      -0.00000000      10.35552367
W        1.59323463       1.59323463      11.94873874
W        0.00000000      -0.00000000      13.54195690
W        1.59323463       1.59323463      15.13512341
W        0.00000000       0.00000000      16.72824439
W        1.59323463       1.59323463      18.32140151
W        0.00000000       0.00000000      19.91456100
W        1.59323463       1.59323463      21.50772269
W       -0.00000000      -0.00000000      23.10091978
W        1.59323463       1.59323463      24.69409217
W        0.00000000       0.00000000      26.69747850
W        1.59323463       1.59323463      28.29065089
W        0.00000000      -0.00000000      29.88384798
W        1.59323463       1.59323463      31.47700967
W        0.00000000       0.00000000      33.07016916
W        1.59323463       1.59323463      34.66332628
W        0.00000000      -0.00000000      36.25644726
W        1.59323463       1.59323463      37.84961377
W       -0.00000000      -0.00000000      39.44283193
W        1.59323463       1.59323463      41.03604700
W        0.00000000      -0.00000000      42.62924522
W        1.59323463       1.59323463      44.22242724
W        0.00000000      -0.00000000      45.81556873
W        1.59323463       1.59323463      47.40867085
W       -0.00000000      -0.00000000      49.00182446
W        1.59323463       1.59323463      50.59499807
W       -0.00000000       3.18646925       0.79657260
W        1.59323463       4.77970388       2.38974621
W       -0.00000000       3.18646925       3.98289982
W        1.59323463       4.77970388       5.57600194
W        0.00000000       3.18646925       7.16914343
W        1.59323463       4.77970388       8.76232545
W        0.00000000       3.18646925      10.35552367
W        1.59323463       4.77970388      11.94873874
W       -0.00000000       3.18646925      13.54195690
W        1.59323463       4.77970388      15.13512341
W       -0.00000000       3.18646925      16.72824439
W        1.59323463       4.77970388      18.32140151
W        0.00000000       3.18646925      19.91456100
W        1.59323463       4.77970388      21.50772269
W        0.00000000       3.18646925      23.10091978
W        1.59323463       4.77970388      24.69409217
W        0.00000000       3.18646925      26.69747850
W        1.59323463       4.77970388      28.29065089
W       -0.00000000       3.18646925      29.88384798
W        1.59323463       4.77970388      31.47700967
W        0.00000000       3.18646925      33.07016916
W        1.59323463       4.77970388      34.66332628
W        0.00000000       3.18646925      36.25644726
W        1.59323463       4.77970388      37.84961377
W        0.00000000       3.18646925      39.44283193
W        1.59323463       4.77970388      41.03604700
W        0.00000000       3.18646925      42.62924522
W        1.59323463       4.77970388      44.22242724
W        0.00000000       3.18646925      45.81556873
W        1.59323463       4.77970388      47.40867085
W        0.00000000       3.18646925      49.00182446
W        1.59323463       4.77970388      50.59499807
W        0.00000000       6.37293851       0.79657260
W        1.59323463       7.96617313       2.38974621
W       -0.00000000       6.37293851       3.98289982
W        1.59323463       7.96617313       5.57600194
W        0.00000000       6.37293851       7.16914343
W        1.59323463       7.96617313       8.76232545
W       -0.00000000       6.37293851      10.35552367
W        1.59323463       7.96617313      11.94873874
W        0.00000000       6.37293851      13.54195690
W        1.59323463       7.96617313      15.13512341
W       -0.00000000       6.37293851      16.72824439
W        1.59323463       7.96617313      18.32140151
W        0.00000000       6.37293851      19.91456100
W        1.59323463       7.96617313      21.50772269
W        0.00000000       6.37293851      23.10091978
W        1.59323463       7.96617313      24.69409217
W       -0.00000000       6.37293851      26.69747850
W        1.59323463       7.96617313      28.29065089
W        0.00000000       6.37293851      29.88384798
W        1.59323463       7.96617313      31.47700967
W       -0.00000000       6.37293851      33.07016916
W        1.59323463       7.96617313      34.66332628
W        0.00000000       6.37293851      36.25644726
W        1.59323463       7.96617313      37.84961377
W       -0.00000000       6.37293851      39.44283193
W        1.59323463       7.96617313      41.03604700
W        0.00000000       6.37293851      42.62924522
W        1.59323463       7.96617313      44.22242724
W       -0.00000000       6.37293851      45.81556873
W        1.59323463       7.96617313      47.40867085
W       -0.00000000       6.37293851      49.00182446
W        1.59323463       7.96617313      50.59499807
W        3.18646925      -0.00000000       0.79657260
W        4.77970388       1.59323463       2.38974621
W        3.18646925       0.00000000       3.98289982
W        4.77970388       1.59323463       5.57600194
W        3.18646925       0.00000000       7.16914343
W        4.77970388       1.59323463       8.76232545
W        3.18646925       0.00000000      10.35552367
W        4.77970388       1.59323463      11.94873874
W        3.18646925       0.00000000      13.54195690
W        4.77970388       1.59323463      15.13512341
W        3.18646925      -0.00000000      16.72824439
W        4.77970388       1.59323463      18.32140151
W        3.18646925      -0.00000000      19.91456100
W        4.77970388       1.59323463      21.50772269
W        3.18646925       0.00000000      23.10091978
W        4.77970388       1.59323463      24.69409217
W        3.18646925       0.00000000      26.69747850
W        4.77970388       1.59323463      28.29065089
W        3.18646925      -0.00000000      29.88384798
W        4.77970388       1.59323463      31.47700967
W        3.18646925       0.00000000      33.07016916
W        4.77970388       1.59323463      34.66332628
W        3.18646925      -0.00000000      36.25644726
W        4.77970388       1.59323463      37.84961377
W        3.18646925       0.00000000      39.44283193
W        4.77970388       1.59323463      41.03604700
W        3.18646925      -0.00000000      42.62924522
W        4.77970388       1.59323463      44.22242724
W        3.18646925       0.00000000      45.81556873
W        4.77970388       1.59323463      47.40867085
W        3.18646925       0.00000000      49.00182446
W        4.77970388       1.59323463      50.59499807
W        3.18646925       3.18646925       0.79657260
W        4.77970388       4.77970388       2.38974621
W        3.18646925       3.18646925       3.98289982
W        4.77970388       4.77970388       5.57600194
W        3.18646925       3.18646925       7.16914343
W        4.77970388       4.77970388       8.76232545
W        3.18646925       3.18646925      10.35552367
W        4.77970388       4.77970388      11.94873874
W        3.18646925       3.18646925      13.54195690
W        4.77970388       4.77970388      15.13512341
W        3.18646925       3.18646925      16.72824439
W        4.77970388       4.77970388      18.32140151
W        3.18646925       3.18646925      19.91456100
W        4.77970388       4.77970388      21.50772269
W        3.18646925       3.18646925      23.10091978
W        4.77970388       4.77970388      24.69409217
W        3.18646925       3.18646925      26.69747850
W        4.77970388       4.77970388      28.29065089
W        3.18646925       3.18646925      29.88384798
W        4.77970388       4.77970388      31.47700967
W        3.18646925       3.18646925      33.07016916
W        4.77970388       4.77970388      34.66332628
W        3.18646925       3.18646925      36.25644726
W        4.77970388       4.77970388      37.84961377
W        3.18646925       3.18646925      39.44283193
W        4.77970388       4.77970388      41.03604700
W        3.18646925       3.18646925      42.62924522
W        4.77970388       4.77970388      44.22242724
W        3.18646925       3.18646925      45.81556873
W        4.77970388       4.77970388      47.40867085
W        3.18646925       3.18646925      49.00182446
W        4.77970388       4.77970388      50.59499807
W        3.18646925       6.37293851       0.79657260
W        4.77970388       7.96617313       2.38974621
W        3.18646925       6.37293851       3.98289982
W        4.77970388       7.96617313       5.57600194
W        3.18646925       6.37293851       7.16914343
W        4.77970388       7.96617313       8.76232545
W        3.18646925       6.37293851      10.35552367
W        4.77970388       7.96617313      11.94873874
W        3.18646925       6.37293851      13.54195690
W        4.77970388       7.96617313      15.13512341
W        3.18646925       6.37293851      16.72824439
W        4.77970388       7.96617313      18.32140151
W        3.18646925       6.37293851      19.91456100
W        4.77970388       7.96617313      21.50772269
W        3.18646925       6.37293851      23.10091978
W        4.77970388       7.96617313      24.69409217
W        3.18646925       6.37293851      26.69747850
W        4.77970388       7.96617313      28.29065089
W        3.18646925       6.37293851      29.88384798
W        4.77970388       7.96617313      31.47700967
W        3.18646925       6.37293851      33.07016916
W        4.77970388       7.96617313      34.66332628
W        3.18646925       6.37293851      36.25644726
W        4.77970388       7.96617313      37.84961377
W        3.18646925       6.37293851      39.44283193
W        4.77970388       7.96617313      41.03604700
W        3.18646925       6.37293851      42.62924522
W        4.77970388       7.96617313      44.22242724
W        3.18646925       6.37293851      45.81556873
W        4.77970388       7.96617313      47.40867085
W        3.18646925       6.37293851      49.00182446
W        4.77970388       7.96617313      50.59499807
W        6.37293851       0.00000000       0.79657260
W        7.96617313       1.59323463       2.38974621
W        6.37293851       0.00000000       3.98289982
W        7.96617313       1.59323463       5.57600194
W        6.37293851       0.00000000       7.16914343
W        7.96617313       1.59323463       8.76232545
W        6.37293851      -0.00000000      10.35552367
W        7.96617313       1.59323463      11.94873874
W        6.37293851       0.00000000      13.54195690
W        7.96617313       1.59323463      15.13512341
W        6.37293851      -0.00000000      16.72824439
W        7.96617313       1.59323463      18.32140151
W        6.37293851      -0.00000000      19.91456100
W        7.96617313       1.59323463      21.50772269
W        6.37293851       0.00000000      23.10091978
W        7.96617313       1.59323463      24.69409217
W        6.37293851      -0.00000000      26.69747850
W        7.96617313       1.59323463      28.29065089
W        6.37293851       0.00000000      29.88384798
W        7.96617313       1.59323463      31.47700967
W        6.37293851      -0.00000000      33.07016916
W        7.96617313       1.59323463      34.66332628
W        6.37293851       0.00000000      36.25644726
W        7.96617313       1.59323463      37.84961377
W        6.37293851      -0.00000000      39.44283193
W        7.96617313       1.59323463      41.03604700
W        6.37293851      -0.00000000      42.62924522
W        7.96617313       1.59323463      44.22242724
W        6.37293851      -0.00000000      45.81556873
W        7.96617313       1.59323463      47.40867085
W        6.37293851       0.00000000      49.00182446
W        7.96617313       1.59323463      50.59499807
W        6.37293851       3.18646925       0.79657260
W        7.96617313       4.77970388       2.38974621
W        6.37293851       3.18646925       3.98289982
W        7.96617313       4.77970388       5.57600194
W        6.37293851       3.18646925       7.16914343
W        7.96617313       4.77970388       8.76232545
W        6.37293851       3.18646925      10.35552367
W        7.96617313       4.77970388      11.94873874
W        6.37293851       3.18646925      13.54195690
W        7.96617313       4.77970388      15.13512341
W        6.37293851       3.18646925      16.72824439
W        7.96617313       4.77970388      18.32140151
W        6.37293851       3.18646925      19.91456100
W        7.96617313       4.77970388      21.50772269
W        6.37293851       3.18646925      23.10091978
W        7.96617313       4.77970388      24.69409217
W        6.37293851       3.18646925      26.69747850
W        7.96617313       4.77970388      28.29065089
W        6.37293851       3.18646925      29.88384798
W        7.96617313       4.77970388      31.47700967
W        6.37293851       3.18646925      33.07016916
W        7.96617313       4.77970388      34.66332628
W        6.37293851       3.18646925      36.25644726
W        7.96617313       4.77970388      37.84961377
W        6.37293851       3.18646925      39.44283193
W        7.96617313       4.77970388      41.03604700
W        6.37293851       3.18646925      42.62924522
W        7.96617313       4.77970388      44.22242724
W        6.37293851       3.18646925      45.81556873
W        7.96617313       4.77970388      47.40867085
W        6.37293851       3.18646925      49.00182446
W        7.96617313       4.77970388      50.59499807
W        6.37293851       6.37293851       0.79657260
W        7.96617313       7.96617313       2.38974621
W        6.37293851       6.37293851       3.98289982
W        7.96617313       7.96617313       5.57600194
W        6.37293851       6.37293851       7.16914343
W        7.96617313       7.96617313       8.76232545
W        6.37293851       6.37293851      10.35552367
W        7.96617313       7.96617313      11.94873874
W        6.37293851       6.37293851      13.54195690
W        7.96617313       7.96617313      15.13512341
W        6.37293851       6.37293851      16.72824439
W        7.96617313       7.96617313      18.32140151
W        6.37293851       6.37293851      19.91456100
W        7.96617313       7.96617313      21.50772269
W        6.37293851       6.37293851      23.10091978
W        7.96617313       7.96617313      24.69409217
W        6.37293851       6.37293851      26.69747850
W        7.96617313       7.96617313      28.29065089
W        6.37293851       6.37293851      29.88384798
W        7.96617313       7.96617313      31.47700967
W        6.37293851       6.37293851      33.07016916
W        7.96617313       7.96617313      34.66332628
W        6.37293851       6.37293851      36.25644726
W        7.96617313       7.96617313      37.84961377
W        6.37293851       6.37293851      39.44283193
W        7.96617313       7.96617313      41.03604700
W        6.37293851       6.37293851      42.62924522
W        7.96617313       7.96617313      44.22242724
W        6.37293851       6.37293851      45.81556873
W        7.96617313       7.96617313      47.40867085
W        6.37293851       6.37293851      49.00182446
W        7.96617313       7.96617313      50.59499807
288
Lattice="9.559407760912599 1.5551574685670926e-18 -1.2681778328733722e-17 1.5551574685670926e-18 9.559407760912599 -3.802032394954696e-17 -6.226046143134533e-17 -1.9250595450418562e-16 51.49413477296075" Properties=species:S:1:pos:R:3 vacuum_gap_Ang=0.5128205128205128 frame_index=5 pbc="T T T"
W       -0.00000000       0.00000000       0.79657260
W        1.59323463       1.59323463       2.38974621
W       -0.00000000       0.00000000       3.98289982
W        1.59323463       1.59323463       5.57600194
W        0.00000000       0.00000000       7.16914343
W        1.59323463       1.59323463       8.76232545
W       -0.00000000      -0.00000000      10.35552367
W        1.59323463       1.59323463      11.94873874
W        0.00000000      -0.00000000      13.54195690
W        1.59323463       1.59323463      15.13512341
W        0.00000000       0.00000000      16.72824439
W        1.59323463       1.59323463      18.32140151
W        0.00000000       0.00000000      19.91456100
W        1.59323463       1.59323463      21.50772269
W       -0.00000000      -0.00000000      23.10091978
W        1.59323463       1.59323463      24.69409217
W        0.00000000       0.00000000      26.80004261
W        1.59323463       1.59323463      28.39321499
W        0.00000000      -0.00000000      29.98641208
W        1.59323463       1.59323463      31.57957377
W        0.00000000       0.00000000      33.17273326
W        1.59323463       1.59323463      34.76589039
W        0.00000000      -0.00000000      36.35901137
W        1.59323463       1.59323463      37.95217788
W       -0.00000000      -0.00000000      39.54539603
W        1.59323463       1.59323463      41.13861110
W        0.00000000      -0.00000000      42.73180932
W        1.59323463       1.59323463      44.32499134
W        0.00000000      -0.00000000      45.91813284
W        1.59323463       1.59323463      47.51123495
W       -0.00000000      -0.00000000      49.10438856
W        1.59323463       1.59323463      50.69756217
W       -0.00000000       3.18646925       0.79657260
W        1.59323463       4.77970388       2.38974621
W       -0.00000000       3.18646925       3.98289982
W        1.59323463       4.77970388       5.57600194
W        0.00000000       3.18646925       7.16914343
W        1.59323463       4.77970388       8.76232545
W        0.00000000       3.18646925      10.35552367
W        1.59323463       4.77970388      11.94873874
W       -0.00000000       3.18646925      13.54195690
W        1.59323463       4.77970388      15.13512341
W       -0.00000000       3.18646925      16.72824439
W        1.59323463       4.77970388      18.32140151
W        0.00000000       3.18646925      19.91456100
W        1.59323463       4.77970388      21.50772269
W        0.00000000       3.18646925      23.10091978
W        1.59323463       4.77970388      24.69409217
W        0.00000000       3.18646925      26.80004261
W        1.59323463       4.77970388      28.39321499
W       -0.00000000       3.18646925      29.98641208
W        1.59323463       4.77970388      31.57957377
W        0.00000000       3.18646925      33.17273326
W        1.59323463       4.77970388      34.76589039
W        0.00000000       3.18646925      36.35901137
W        1.59323463       4.77970388      37.95217788
W        0.00000000       3.18646925      39.54539603
W        1.59323463       4.77970388      41.13861110
W        0.00000000       3.18646925      42.73180932
W        1.59323463       4.77970388      44.32499134
W        0.00000000       3.18646925      45.91813284
W        1.59323463       4.77970388      47.51123495
W        0.00000000       3.18646925      49.10438856
W        1.59323463       4.77970388      50.69756217
W        0.00000000       6.37293851       0.79657260
W        1.59323463       7.96617313       2.38974621
W       -0.00000000       6.37293851       3.98289982
W        1.59323463       7.96617313       5.57600194
W        0.00000000       6.37293851       7.16914343
W        1.59323463       7.96617313       8.76232545
W       -0.00000000       6.37293851      10.35552367
W        1.59323463       7.96617313      11.94873874
W        0.00000000       6.37293851      13.54195690
W        1.59323463       7.96617313      15.13512341
W       -0.00000000       6.37293851      16.72824439
W        1.59323463       7.96617313      18.32140151
W        0.00000000       6.37293851      19.91456100
W        1.59323463       7.96617313      21.50772269
W        0.00000000       6.37293851      23.10091978
W        1.59323463       7.96617313      24.69409217
W       -0.00000000       6.37293851      26.80004261
W        1.59323463       7.96617313      28.39321499
W        0.00000000       6.37293851      29.98641208
W        1.59323463       7.96617313      31.57957377
W       -0.00000000       6.37293851      33.17273326
W        1.59323463       7.96617313      34.76589039
W        0.00000000       6.37293851      36.35901137
W        1.59323463       7.96617313      37.95217788
W       -0.00000000       6.37293851      39.54539603
W        1.59323463       7.96617313      41.13861110
W        0.00000000       6.37293851      42.73180932
W        1.59323463       7.96617313      44.32499134
W       -0.00000000       6.37293851      45.91813284
W        1.59323463       7.96617313      47.51123495
W       -0.00000000       6.37293851      49.10438856
W        1.59323463       7.96617313      50.69756217
W        3.18646925      -0.00000000       0.79657260
W        4.77970388       1.59323463       2.38974621
W        3.18646925       0.00000000       3.98289982
W        4.77970388       1.59323463       5.57600194
W        3.18646925       0.00000000       7.16914343
W        4.77970388       1.59323463       8.76232545
W        3.18646925       0.00000000      10.35552367
W        4.77970388       1.59323463      11.94873874
W        3.18646925       0.00000000      13.54195690
W        4.77970388       1.59323463      15.13512341
W        3.18646925      -0.00000000      16.72824439
W        4.77970388       1.59323463      18.32140151
W        3.18646925      -0.00000000      19.91456100
W        4.77970388       1.59323463      21.50772269
W        3.18646925       0.00000000      23.10091978
W        4.77970388       1.59323463      24.69409217
W        3.18646925       0.00000000      26.80004261
W        4.77970388       1.59323463      28.39321499
W        3.18646925      -0.00000000      29.98641208
W        4.77970388       1.59323463      31.57957377
W        3.18646925       0.00000000      33.17273326
W        4.77970388       1.59323463      34.76589039
W        3.18646925      -0.00000000      36.35901137
W        4.77970388       1.59323463      37.95217788
W        3.18646925       0.00000000      39.54539603
W        4.77970388       1.59323463      41.13861110
W        3.18646925      -0.00000000      42.73180932
W        4.77970388       1.59323463      44.32499134
W        3.18646925       0.00000000      45.91813284
W        4.77970388       1.59323463      47.51123495
W        3.18646925       0.00000000      49.10438856
W        4.77970388       1.59323463      50.69756217
W        3.18646925       3.18646925       0.79657260
W        4.77970388       4.77970388       2.38974621
W        3.18646925       3.18646925       3.98289982
W        4.77970388       4.77970388       5.57600194
W        3.18646925       3.18646925       7.16914343
W        4.77970388       4.77970388       8.76232545
W        3.18646925       3.18646925      10.35552367
W        4.77970388       4.77970388      11.94873874
W        3.18646925       3.18646925      13.54195690
W        4.77970388       4.77970388      15.13512341
W        3.18646925       3.18646925      16.72824439
W        4.77970388       4.77970388      18.32140151
W        3.18646925       3.18646925      19.91456100
W        4.77970388       4.77970388      21.50772269
W        3.18646925       3.18646925      23.10091978
W        4.77970388       4.77970388      24.69409217
W        3.18646925       3.18646925      26.80004261
W        4.77970388       4.77970388      28.39321499
W        3.18646925       3.18646925      29.98641208
W        4.77970388       4.77970388      31.57957377
W        3.18646925       3.18646925      33.17273326
W        4.77970388       4.77970388      34.76589039
W        3.18646925       3.18646925      36.35901137
W        4.77970388       4.77970388      37.95217788
W        3.18646925       3.18646925      39.54539603
W        4.77970388       4.77970388      41.13861110
W        3.18646925       3.18646925      42.73180932
W        4.77970388       4.77970388      44.32499134
W        3.18646925       3.18646925      45.91813284
W        4.77970388       4.77970388      47.51123495
W        3.18646925       3.18646925      49.10438856
W        4.77970388       4.77970388      50.69756217
W        3.18646925       6.37293851       0.79657260
W        4.77970388       7.96617313       2.38974621
W        3.18646925       6.37293851       3.98289982
W        4.77970388       7.96617313       5.57600194
W        3.18646925       6.37293851       7.16914343
W        4.77970388       7.96617313       8.76232545
W        3.18646925       6.37293851      10.35552367
W        4.77970388       7.96617313      11.94873874
W        3.18646925       6.37293851      13.54195690
W        4.77970388       7.96617313      15.13512341
W        3.18646925       6.37293851      16.72824439
W        4.77970388       7.96617313      18.32140151
W        3.18646925       6.37293851      19.91456100
W        4.77970388       7.96617313      21.50772269
W        3.18646925       6.37293851      23.10091978
W        4.77970388       7.96617313      24.69409217
W        3.18646925       6.37293851      26.80004261
W        4.77970388       7.96617313      28.39321499
W        3.18646925       6.37293851      29.98641208
W        4.77970388       7.96617313      31.57957377
W        3.18646925       6.37293851      33.17273326
W        4.77970388       7.96617313      34.76589039
W        3.18646925       6.37293851      36.35901137
W        4.77970388       7.96617313      37.95217788
W        3.18646925       6.37293851      39.54539603
W        4.77970388       7.96617313      41.13861110
W        3.18646925       6.37293851      42.73180932
W        4.77970388       7.96617313      44.32499134
W        3.18646925       6.37293851      45.91813284
W        4.77970388       7.96617313      47.51123495
W        3.18646925       6.37293851      49.10438856
W        4.77970388       7.96617313      50.69756217
W        6.37293851       0.00000000       0.79657260
W        7.96617313       1.59323463       2.38974621
W        6.37293851       0.00000000       3.98289982
W        7.96617313       1.59323463       5.57600194
W        6.37293851       0.00000000       7.16914343
W        7.96617313       1.59323463       8.76232545
W        6.37293851      -0.00000000      10.35552367
W        7.96617313       1.59323463      11.94873874
W        6.37293851       0.00000000      13.54195690
W        7.96617313       1.59323463      15.13512341
W        6.37293851      -0.00000000      16.72824439
W        7.96617313       1.59323463      18.32140151
W        6.37293851      -0.00000000      19.91456100
W        7.96617313       1.59323463      21.50772269
W        6.37293851       0.00000000      23.10091978
W        7.96617313       1.59323463      24.69409217
W        6.37293851      -0.00000000      26.80004261
W        7.96617313       1.59323463      28.39321499
W        6.37293851       0.00000000      29.98641208
W        7.96617313       1.59323463      31.57957377
W        6.37293851      -0.00000000      33.17273326
W        7.96617313       1.59323463      34.76589039
W        6.37293851       0.00000000      36.35901137
W        7.96617313       1.59323463      37.95217788
W        6.37293851      -0.00000000      39.54539603
W        7.96617313       1.59323463      41.13861110
W        6.37293851      -0.00000000      42.73180932
W        7.96617313       1.59323463      44.32499134
W        6.37293851      -0.00000000      45.91813284
W        7.96617313       1.59323463      47.51123495
W        6.37293851       0.00000000      49.10438856
W        7.96617313       1.59323463      50.69756217
W        6.37293851       3.18646925       0.79657260
W        7.96617313       4.77970388       2.38974621
W        6.37293851       3.18646925       3.98289982
W        7.96617313       4.77970388       5.57600194
W        6.37293851       3.18646925       7.16914343
W        7.96617313       4.77970388       8.76232545
W        6.37293851       3.18646925      10.35552367
W        7.96617313       4.77970388      11.94873874
W        6.37293851       3.18646925      13.54195690
W        7.96617313       4.77970388      15.13512341
W        6.37293851       3.18646925      16.72824439
W        7.96617313       4.77970388      18.32140151
W        6.37293851       3.18646925      19.91456100
W        7.96617313       4.77970388      21.50772269
W        6.37293851       3.18646925      23.10091978
W        7.96617313       4.77970388      24.69409217
W        6.37293851       3.18646925      26.80004261
W        7.96617313       4.77970388      28.39321499
W        6.37293851       3.18646925      29.98641208
W        7.96617313       4.77970388      31.57957377
W        6.37293851       3.18646925      33.17273326
W        7.96617313       4.77970388      34.76589039
W        6.37293851       3.18646925      36.35901137
W        7.96617313       4.77970388      37.95217788
W        6.37293851       3.18646925      39.54539603
W        7.96617313       4.77970388      41.13861110
W        6.37293851       3.18646925      42.73180932
W        7.96617313       4.77970388      44.32499134
W        6.37293851       3.18646925      45.91813284
W        7.96617313       4.77970388      47.51123495
W        6.37293851       3.18646925      49.10438856
W        7.96617313       4.77970388      50.69756217
W        6.37293851       6.37293851       0.79657260
W        7.96617313       7.96617313       2.38974621
W        6.37293851       6.37293851       3.98289982
W        7.96617313       7.96617313       5.57600194
W        6.37293851       6.37293851       7.16914343
W        7.96617313       7.96617313       8.76232545
W        6.37293851       6.37293851      10.35552367
W        7.96617313       7.96617313      11.94873874
W        6.37293851       6.37293851      13.54195690
W        7.96617313       7.96617313      15.13512341
W        6.37293851       6.37293851      16.72824439
W        7.96617313       7.96617313      18.32140151
W        6.37293851       6.37293851      19.91456100
W        7.96617313       7.96617313      21.50772269
W        6.37293851       6.37293851      23.10091978
W        7.96617313       7.96617313      24.69409217
W        6.37293851       6.37293851      26.80004261
W        7.96617313       7.96617313      28.39321499
W        6.37293851       6.37293851      29.98641208
W        7.96617313       7.96617313      31.57957377
W        6.37293851       6.37293851      33.17273326
W        7.96617313       7.96617313      34.76589039
W        6.37293851       6.37293851      36.35901137
W        7.96617313       7.96617313      37.95217788
W        6.37293851       6.37293851      39.54539603
W        7.96617313       7.96617313      41.13861110
W        6.37293851       6.37293851      42.73180932
W        7.96617313       7.96617313      44.32499134
W        6.37293851       6.37293851      45.91813284
W        7.96617313       7.96617313      47.51123495
W        6.37293851       6.37293851      49.10438856
W        7.96617313       7.96617313      50.69756217
288
Lattice="9.559407760912599 1.5551574685670926e-18 -1.2681778328733722e-17 1.5551574685670926e-18 9.559407760912599 -3.802032394954696e-17 -6.226046143134533e-17 -1.9250595450418562e-16 51.59669887552485" Properties=species:S:1:pos:R:3 vacuum_gap_Ang=0.6153846153846154 frame_index=6 pbc="T T T"
W       -0.00000000       0.00000000       0.79657260
W        1.59323463       1.59323463       2.38974621
W       -0.00000000       0.00000000       3.98289982
W        1.59323463       1.59323463       5.57600194
W        0.00000000       0.00000000       7.16914343
W        1.59323463       1.59323463       8.76232545
W       -0.00000000      -0.00000000      10.35552367
W        1.59323463       1.59323463      11.94873874
W        0.00000000      -0.00000000      13.54195690
W        1.59323463       1.59323463      15.13512341
W        0.00000000       0.00000000      16.72824439
W        1.59323463       1.59323463      18.32140151
W        0.00000000       0.00000000      19.91456100
W        1.59323463       1.59323463      21.50772269
W       -0.00000000      -0.00000000      23.10091978
W        1.59323463       1.59323463      24.69409217
W        0.00000000       0.00000000      26.90260671
W        1.59323463       1.59323463      28.49577909
W        0.00000000      -0.00000000      30.08897618
W        1.59323463       1.59323463      31.68213787
W        0.00000000       0.00000000      33.27529736
W        1.59323463       1.59323463      34.86845449
W        0.00000000      -0.00000000      36.46157547
W        1.59323463       1.59323463      38.05474198
W       -0.00000000      -0.00000000      39.64796013
W        1.59323463       1.59323463      41.24117520
W        0.00000000      -0.00000000      42.83437342
W        1.59323463       1.59323463      44.42755544
W        0.00000000      -0.00000000      46.02069694
W        1.59323463       1.59323463      47.61379906
W       -0.00000000      -0.00000000      49.20695266
W        1.59323463       1.59323463      50.80012628
W       -0.00000000       3.18646925       0.79657260
W        1.59323463       4.77970388       2.38974621
W       -0.00000000       3.18646925       3.98289982
W        1.59323463       4.77970388       5.57600194
W        0.00000000       3.18646925       7.16914343
W        1.59323463       4.77970388       8.76232545
W        0.00000000       3.18646925      10.35552367
W        1.59323463       4.77970388      11.94873874
W       -0.00000000       3.18646925      13.54195690
W        1.59323463       4.77970388      15.13512341
W       -0.00000000       3.18646925      16.72824439
W        1.59323463       4.77970388      18.32140151
W        0.00000000       3.18646925      19.91456100
W        1.59323463       4.77970388      21.50772269
W        0.00000000       3.18646925      23.10091978
W        1.59323463       4.77970388      24.69409217
W        0.00000000       3.18646925      26.90260671
W        1.59323463       4.77970388      28.49577909
W       -0.00000000       3.18646925      30.08897618
W        1.59323463       4.77970388      31.68213787
W        0.00000000       3.18646925      33.27529736
W        1.59323463       4.77970388      34.86845449
W        0.00000000       3.18646925      36.46157547
W        1.59323463       4.77970388      38.05474198
W        0.00000000       3.18646925      39.64796013
W        1.59323463       4.77970388      41.24117520
W        0.00000000       3.18646925      42.83437342
W        1.59323463       4.77970388      44.42755544
W        0.00000000       3.18646925      46.02069694
W        1.59323463       4.77970388      47.61379906
W        0.00000000       3.18646925      49.20695266
W        1.59323463       4.77970388      50.80012628
W        0.00000000       6.37293851       0.79657260
W        1.59323463       7.96617313       2.38974621
W       -0.00000000       6.37293851       3.98289982
W        1.59323463       7.96617313       5.57600194
W        0.00000000       6.37293851       7.16914343
W        1.59323463       7.96617313       8.76232545
W       -0.00000000       6.37293851      10.35552367
W        1.59323463       7.96617313      11.94873874
W        0.00000000       6.37293851      13.54195690
W        1.59323463       7.96617313      15.13512341
W       -0.00000000       6.37293851      16.72824439
W        1.59323463       7.96617313      18.32140151
W        0.00000000       6.37293851      19.91456100
W        1.59323463       7.96617313      21.50772269
W        0.00000000       6.37293851      23.10091978
W        1.59323463       7.96617313      24.69409217
W       -0.00000000       6.37293851      26.90260671
W        1.59323463       7.96617313      28.49577909
W        0.00000000       6.37293851      30.08897618
W        1.59323463       7.96617313      31.68213787
W       -0.00000000       6.37293851      33.27529736
W        1.59323463       7.96617313      34.86845449
W        0.00000000       6.37293851      36.46157547
W        1.59323463       7.96617313      38.05474198
W       -0.00000000       6.37293851      39.64796013
W        1.59323463       7.96617313      41.24117520
W        0.00000000       6.37293851      42.83437342
W        1.59323463       7.96617313      44.42755544
W       -0.00000000       6.37293851      46.02069694
W        1.59323463       7.96617313      47.61379906
W       -0.00000000       6.37293851      49.20695266
W        1.59323463       7.96617313      50.80012628
W        3.18646925      -0.00000000       0.79657260
W        4.77970388       1.59323463       2.38974621
W        3.18646925       0.00000000       3.98289982
W        4.77970388       1.59323463       5.57600194
W        3.18646925       0.00000000       7.16914343
W        4.77970388       1.59323463       8.76232545
W        3.18646925       0.00000000      10.35552367
W        4.77970388       1.59323463      11.94873874
W        3.18646925       0.00000000      13.54195690
W        4.77970388       1.59323463      15.13512341
W        3.18646925      -0.00000000      16.72824439
W        4.77970388       1.59323463      18.32140151
W        3.18646925      -0.00000000      19.91456100
W        4.77970388       1.59323463      21.50772269
W        3.18646925       0.00000000      23.10091978
W        4.77970388       1.59323463      24.69409217
W        3.18646925       0.00000000      26.90260671
W        4.77970388       1.59323463      28.49577909
W        3.18646925      -0.00000000      30.08897618
W        4.77970388       1.59323463      31.68213787
W        3.18646925       0.00000000      33.27529736
W        4.77970388       1.59323463      34.86845449
W        3.18646925      -0.00000000      36.46157547
W        4.77970388       1.59323463      38.05474198
W        3.18646925       0.00000000      39.64796013
W        4.77970388       1.59323463      41.24117520
W        3.18646925      -0.00000000      42.83437342
W        4.77970388       1.59323463      44.42755544
W        3.18646925       0.00000000      46.02069694
W        4.77970388       1.59323463      47.61379906
W        3.18646925       0.00000000      49.20695266
W        4.77970388       1.59323463      50.80012628
W        3.18646925       3.18646925       0.79657260
W        4.77970388       4.77970388       2.38974621
W        3.18646925       3.18646925       3.98289982
W        4.77970388       4.77970388       5.57600194
W        3.18646925       3.18646925       7.16914343
W        4.77970388       4.77970388       8.76232545
W        3.18646925       3.18646925      10.35552367
W        4.77970388       4.77970388      11.94873874
W        3.18646925       3.18646925      13.54195690
W        4.77970388       4.77970388      15.13512341
W        3.18646925       3.18646925      16.72824439
W        4.77970388       4.77970388      18.32140151
W        3.18646925       3.18646925      19.91456100
W        4.77970388       4.77970388      21.50772269
W        3.18646925       3.18646925      23.10091978
W        4.77970388       4.77970388      24.69409217
W        3.18646925       3.18646925      26.90260671
W        4.77970388       4.77970388      28.49577909
W        3.18646925       3.18646925      30.08897618
W        4.77970388       4.77970388      31.68213787
W        3.18646925       3.18646925      33.27529736
W        4.77970388       4.77970388      34.86845449
W        3.18646925       3.18646925      36.46157547
W        4.77970388       4.77970388      38.05474198
W        3.18646925       3.18646925      39.64796013
W        4.77970388       4.77970388      41.24117520
W        3.18646925       3.18646925      42.83437342
W        4.77970388       4.77970388      44.42755544
W        3.18646925       3.18646925      46.02069694
W        4.77970388       4.77970388      47.61379906
W        3.18646925       3.18646925      49.20695266
W        4.77970388       4.77970388      50.80012628
W        3.18646925       6.37293851       0.79657260
W        4.77970388       7.96617313       2.38974621
W        3.18646925       6.37293851       3.98289982
W        4.77970388       7.96617313       5.57600194
W        3.18646925       6.37293851       7.16914343
W        4.77970388       7.96617313       8.76232545
W        3.18646925       6.37293851      10.35552367
W        4.77970388       7.96617313      11.94873874
W        3.18646925       6.37293851      13.54195690
W        4.77970388       7.96617313      15.13512341
W        3.18646925       6.37293851      16.72824439
W        4.77970388       7.96617313      18.32140151
W        3.18646925       6.37293851      19.91456100
W        4.77970388       7.96617313      21.50772269
W        3.18646925       6.37293851      23.10091978
W        4.77970388       7.96617313      24.69409217
W        3.18646925       6.37293851      26.90260671
W        4.77970388       7.96617313      28.49577909
W        3.18646925       6.37293851      30.08897618
W        4.77970388       7.96617313      31.68213787
W        3.18646925       6.37293851      33.27529736
W        4.77970388       7.96617313      34.86845449
W        3.18646925       6.37293851      36.46157547
W        4.77970388       7.96617313      38.05474198
W        3.18646925       6.37293851      39.64796013
W        4.77970388       7.96617313      41.24117520
W        3.18646925       6.37293851      42.83437342
W        4.77970388       7.96617313      44.42755544
W        3.18646925       6.37293851      46.02069694
W        4.77970388       7.96617313      47.61379906
W        3.18646925       6.37293851      49.20695266
W        4.77970388       7.96617313      50.80012628
W        6.37293851       0.00000000       0.79657260
W        7.96617313       1.59323463       2.38974621
W        6.37293851       0.00000000       3.98289982
W        7.96617313       1.59323463       5.57600194
W        6.37293851       0.00000000       7.16914343
W        7.96617313       1.59323463       8.76232545
W        6.37293851      -0.00000000      10.35552367
W        7.96617313       1.59323463      11.94873874
W        6.37293851       0.00000000      13.54195690
W        7.96617313       1.59323463      15.13512341
W        6.37293851      -0.00000000      16.72824439
W        7.96617313       1.59323463      18.32140151
W        6.37293851      -0.00000000      19.91456100
W        7.96617313       1.59323463      21.50772269
W        6.37293851       0.00000000      23.10091978
W        7.96617313       1.59323463      24.69409217
W        6.37293851      -0.00000000      26.90260671
W        7.96617313       1.59323463      28.49577909
W        6.37293851       0.00000000      30.08897618
W        7.96617313       1.59323463      31.68213787
W        6.37293851      -0.00000000      33.27529736
W        7.96617313       1.59323463      34.86845449
W        6.37293851       0.00000000      36.46157547
W        7.96617313       1.59323463      38.05474198
W        6.37293851      -0.00000000      39.64796013
W        7.96617313       1.59323463      41.24117520
W        6.37293851      -0.00000000      42.83437342
W        7.96617313       1.59323463      44.42755544
W        6.37293851      -0.00000000      46.02069694
W        7.96617313       1.59323463      47.61379906
W        6.37293851       0.00000000      49.20695266
W        7.96617313       1.59323463      50.80012628
W        6.37293851       3.18646925       0.79657260
W        7.96617313       4.77970388       2.38974621
W        6.37293851       3.18646925       3.98289982
W        7.96617313       4.77970388       5.57600194
W        6.37293851       3.18646925       7.16914343
W        7.96617313       4.77970388       8.76232545
W        6.37293851       3.18646925      10.35552367
W        7.96617313       4.77970388      11.94873874
W        6.37293851       3.18646925      13.54195690
W        7.96617313       4.77970388      15.13512341
W        6.37293851       3.18646925      16.72824439
W        7.96617313       4.77970388      18.32140151
W        6.37293851       3.18646925      19.91456100
W        7.96617313       4.77970388      21.50772269
W        6.37293851       3.18646925      23.10091978
W        7.96617313       4.77970388      24.69409217
W        6.37293851       3.18646925      26.90260671
W        7.96617313       4.77970388      28.49577909
W        6.37293851       3.18646925      30.08897618
W        7.96617313       4.77970388      31.68213787
W        6.37293851       3.18646925      33.27529736
W        7.96617313       4.77970388      34.86845449
W        6.37293851       3.18646925      36.46157547
W        7.96617313       4.77970388      38.05474198
W        6.37293851       3.18646925      39.64796013
W        7.96617313       4.77970388      41.24117520
W        6.37293851       3.18646925      42.83437342
W        7.96617313       4.77970388      44.42755544
W        6.37293851       3.18646925      46.02069694
W        7.96617313       4.77970388      47.61379906
W        6.37293851       3.18646925      49.20695266
W        7.96617313       4.77970388      50.80012628
W        6.37293851       6.37293851       0.79657260
W        7.96617313       7.96617313       2.38974621
W        6.37293851       6.37293851       3.98289982
W        7.96617313       7.96617313       5.57600194
W        6.37293851       6.37293851       7.16914343
W        7.96617313       7.96617313       8.76232545
W        6.37293851       6.37293851      10.35552367
W        7.96617313       7.96617313      11.94873874
W        6.37293851       6.37293851      13.54195690
W        7.96617313       7.96617313      15.13512341
W        6.37293851       6.37293851      16.72824439
W        7.96617313       7.96617313      18.32140151
W        6.37293851       6.37293851      19.91456100
W        7.96617313       7.96617313      21.50772269
W        6.37293851       6.37293851      23.10091978
W        7.96617313       7.96617313      24.69409217
W        6.37293851       6.37293851      26.90260671
W        7.96617313       7.96617313      28.49577909
W        6.37293851       6.37293851      30.08897618
W        7.96617313       7.96617313      31.68213787
W        6.37293851       6.37293851      33.27529736
W        7.96617313       7.96617313      34.86845449
W        6.37293851       6.37293851      36.46157547
W        7.96617313       7.96617313      38.05474198
W        6.37293851       6.37293851      39.64796013
W        7.96617313       7.96617313      41.24117520
W        6.37293851       6.37293851      42.83437342
W        7.96617313       7.96617313      44.42755544
W        6.37293851       6.37293851      46.02069694
W        7.96617313       7.96617313      47.61379906
W        6.37293851       6.37293851      49.20695266
W        7.96617313       7.96617313      50.80012628
288
Lattice="9.559407760912599 1.5551574685670926e-18 -1.2681778328733722e-17 1.5551574685670926e-18 9.559407760912599 -3.802032394954696e-17 -6.226046143134533e-17 -1.9250595450418562e-16 51.69926297808895" Properties=species:S:1:pos:R:3 vacuum_gap_Ang=0.717948717948718 frame_index=7 pbc="T T T"
W       -0.00000000       0.00000000       0.79657260
W        1.59323463       1.59323463       2.38974621
W       -0.00000000       0.00000000       3.98289982
W        1.59323463       1.59323463       5.57600194
W        0.00000000       0.00000000       7.16914343
W        1.59323463       1.59323463       8.76232545
W       -0.00000000      -0.00000000      10.35552367
W        1.59323463       1.59323463      11.94873874
W        0.00000000      -0.00000000      13.54195690
W        1.59323463       1.59323463      15.13512341
W        0.00000000       0.00000000      16.72824439
W        1.59323463       1.59323463      18.32140151
W        0.00000000       0.00000000      19.91456100
W        1.59323463       1.59323463      21.50772269
W       -0.00000000      -0.00000000      23.10091978
W        1.59323463       1.59323463      24.69409217
W        0.00000000       0.00000000      27.00517081
W        1.59323463       1.59323463      28.59834319
W        0.00000000      -0.00000000      30.19154029
W        1.59323463       1.59323463      31.78470197
W        0.00000000       0.00000000      33.37786147
W        1.59323463       1.59323463      34.97101859
W        0.00000000      -0.00000000      36.56413957
W        1.59323463       1.59323463      38.15730608
W       -0.00000000      -0.00000000      39.75052423
W        1.59323463       1.59323463      41.34373930
W        0.00000000      -0.00000000      42.93693752
W        1.59323463       1.59323463      44.53011954
W        0.00000000      -0.00000000      46.12326104
W        1.59323463       1.59323463      47.71636316
W       -0.00000000      -0.00000000      49.30951677
W        1.59323463       1.59323463      50.90269038
W       -0.00000000       3.18646925       0.79657260
W        1.59323463       4.77970388       2.38974621
W       -0.00000000       3.18646925       3.98289982
W        1.59323463       4.77970388       5.57600194
W        0.00000000       3.18646925       7.16914343
W        1.59323463       4.77970388       8.76232545
W        0.00000000       3.18646925      10.35552367
W        1.59323463       4.77970388      11.94873874
W       -0.00000000       3.18646925      13.54195690
W        1.59323463       4.77970388      15.13512341
W       -0.00000000       3.18646925      16.72824439
W        1.59323463       4.77970388      18.32140151
W        0.00000000       3.18646925      19.91456100
W        1.59323463       4.77970388      21.50772269
W        0.00000000       3.18646925      23.10091978
W        1.59323463       4.77970388      24.69409217
W        0.00000000       3.18646925      27.00517081
W        1.59323463       4.77970388      28.59834319
W       -0.00000000       3.18646925      30.19154029
W        1.59323463       4.77970388      31.78470197
W        0.00000000       3.18646925      33.37786147
W        1.59323463       4.77970388      34.97101859
W        0.00000000       3.18646925      36.56413957
W        1.59323463       4.77970388      38.15730608
W        0.00000000       3.18646925      39.75052423
W        1.59323463       4.77970388      41.34373930
W        0.00000000       3.18646925      42.93693752
W        1.59323463       4.77970388      44.53011954
W        0.00000000       3.18646925      46.12326104
W        1.59323463       4.77970388      47.71636316
W        0.00000000       3.18646925      49.30951677
W        1.59323463       4.77970388      50.90269038
W        0.00000000       6.37293851       0.79657260
W        1.59323463       7.96617313       2.38974621
W       -0.00000000       6.37293851       3.98289982
W        1.59323463       7.96617313       5.57600194
W        0.00000000       6.37293851       7.16914343
W        1.59323463       7.96617313       8.76232545
W       -0.00000000       6.37293851      10.35552367
W        1.59323463       7.96617313      11.94873874
W        0.00000000       6.37293851      13.54195690
W        1.59323463       7.96617313      15.13512341
W       -0.00000000       6.37293851      16.72824439
W        1.59323463       7.96617313      18.32140151
W        0.00000000       6.37293851      19.91456100
W        1.59323463       7.96617313      21.50772269
W        0.00000000       6.37293851      23.10091978
W        1.59323463       7.96617313      24.69409217
W       -0.00000000       6.37293851      27.00517081
W        1.59323463       7.96617313      28.59834319
W        0.00000000       6.37293851      30.19154029
W        1.59323463       7.96617313      31.78470197
W       -0.00000000       6.37293851      33.37786147
W        1.59323463       7.96617313      34.97101859
W        0.00000000       6.37293851      36.56413957
W        1.59323463       7.96617313      38.15730608
W       -0.00000000       6.37293851      39.75052423
W        1.59323463       7.96617313      41.34373930
W        0.00000000       6.37293851      42.93693752
W        1.59323463       7.96617313      44.53011954
W       -0.00000000       6.37293851      46.12326104
W        1.59323463       7.96617313      47.71636316
W       -0.00000000       6.37293851      49.30951677
W        1.59323463       7.96617313      50.90269038
W        3.18646925      -0.00000000       0.79657260
W        4.77970388       1.59323463       2.38974621
W        3.18646925       0.00000000       3.98289982
W        4.77970388       1.59323463       5.57600194
W        3.18646925       0.00000000       7.16914343
W        4.77970388       1.59323463       8.76232545
W        3.18646925       0.00000000      10.35552367
W        4.77970388       1.59323463      11.94873874
W        3.18646925       0.00000000      13.54195690
W        4.77970388       1.59323463      15.13512341
W        3.18646925      -0.00000000      16.72824439
W        4.77970388       1.59323463      18.32140151
W        3.18646925      -0.00000000      19.91456100
W        4.77970388       1.59323463      21.50772269
W        3.18646925       0.00000000      23.10091978
W        4.77970388       1.59323463      24.69409217
W        3.18646925       0.00000000      27.00517081
W        4.77970388       1.59323463      28.59834319
W        3.18646925      -0.00000000      30.19154029
W        4.77970388       1.59323463      31.78470197
W        3.18646925       0.00000000      33.37786147
W        4.77970388       1.59323463      34.97101859
W        3.18646925      -0.00000000      36.56413957
W        4.77970388       1.59323463      38.15730608
W        3.18646925       0.00000000      39.75052423
W        4.77970388       1.59323463      41.34373930
W        3.18646925      -0.00000000      42.93693752
W        4.77970388       1.59323463      44.53011954
W        3.18646925       0.00000000      46.12326104
W        4.77970388       1.59323463      47.71636316
W        3.18646925       0.00000000      49.30951677
W        4.77970388       1.59323463      50.90269038
W        3.18646925       3.18646925       0.79657260
W        4.77970388       4.77970388       2.38974621
W        3.18646925       3.18646925       3.98289982
W        4.77970388       4.77970388       5.57600194
W        3.18646925       3.18646925       7.16914343
W        4.77970388       4.77970388       8.76232545
W        3.18646925       3.18646925      10.35552367
W        4.77970388       4.77970388      11.94873874
W        3.18646925       3.18646925      13.54195690
W        4.77970388       4.77970388      15.13512341
W        3.18646925       3.18646925      16.72824439
W        4.77970388       4.77970388      18.32140151
W        3.18646925       3.18646925      19.91456100
W        4.77970388       4.77970388      21.50772269
W        3.18646925       3.18646925      23.10091978
W        4.77970388       4.77970388      24.69409217
W        3.18646925       3.18646925      27.00517081
W        4.77970388       4.77970388      28.59834319
W        3.18646925       3.18646925      30.19154029
W        4.77970388       4.77970388      31.78470197
W        3.18646925       3.18646925      33.37786147
W        4.77970388       4.77970388      34.97101859
W        3.18646925       3.18646925      36.56413957
W        4.77970388       4.77970388      38.15730608
W        3.18646925       3.18646925      39.75052423
W        4.77970388       4.77970388      41.34373930
W        3.18646925       3.18646925      42.93693752
W        4.77970388       4.77970388      44.53011954
W        3.18646925       3.18646925      46.12326104
W        4.77970388       4.77970388      47.71636316
W        3.18646925       3.18646925      49.30951677
W        4.77970388       4.77970388      50.90269038
W        3.18646925       6.37293851       0.79657260
W        4.77970388       7.96617313       2.38974621
W        3.18646925       6.37293851       3.98289982
W        4.77970388       7.96617313       5.57600194
W        3.18646925       6.37293851       7.16914343
W        4.77970388       7.96617313       8.76232545
W        3.18646925       6.37293851      10.35552367
W        4.77970388       7.96617313      11.94873874
W        3.18646925       6.37293851      13.54195690
W        4.77970388       7.96617313      15.13512341
W        3.18646925       6.37293851      16.72824439
W        4.77970388       7.96617313      18.32140151
W        3.18646925       6.37293851      19.91456100
W        4.77970388       7.96617313      21.50772269
W        3.18646925       6.37293851      23.10091978
W        4.77970388       7.96617313      24.69409217
W        3.18646925       6.37293851      27.00517081
W        4.77970388       7.96617313      28.59834319
W        3.18646925       6.37293851      30.19154029
W        4.77970388       7.96617313      31.78470197
W        3.18646925       6.37293851      33.37786147
W        4.77970388       7.96617313      34.97101859
W        3.18646925       6.37293851      36.56413957
W        4.77970388       7.96617313      38.15730608
W        3.18646925       6.37293851      39.75052423
W        4.77970388       7.96617313      41.34373930
W        3.18646925       6.37293851      42.93693752
W        4.77970388       7.96617313      44.53011954
W        3.18646925       6.37293851      46.12326104
W        4.77970388       7.96617313      47.71636316
W        3.18646925       6.37293851      49.30951677
W        4.77970388       7.96617313      50.90269038
W        6.37293851       0.00000000       0.79657260
W        7.96617313       1.59323463       2.38974621
W        6.37293851       0.00000000       3.98289982
W        7.96617313       1.59323463       5.57600194
W        6.37293851       0.00000000       7.16914343
W        7.96617313       1.59323463       8.76232545
W        6.37293851      -0.00000000      10.35552367
W        7.96617313       1.59323463      11.94873874
W        6.37293851       0.00000000      13.54195690
W        7.96617313       1.59323463      15.13512341
W        6.37293851      -0.00000000      16.72824439
W        7.96617313       1.59323463      18.32140151
W        6.37293851      -0.00000000      19.91456100
W        7.96617313       1.59323463      21.50772269
W        6.37293851       0.00000000      23.10091978
W        7.96617313       1.59323463      24.69409217
W        6.37293851      -0.00000000      27.00517081
W        7.96617313       1.59323463      28.59834319
W        6.37293851       0.00000000      30.19154029
W        7.96617313       1.59323463      31.78470197
W        6.37293851      -0.00000000      33.37786147
W        7.96617313       1.59323463      34.97101859
W        6.37293851       0.00000000      36.56413957
W        7.96617313       1.59323463      38.15730608
W        6.37293851      -0.00000000      39.75052423
W        7.96617313       1.59323463      41.34373930
W        6.37293851      -0.00000000      42.93693752
W        7.96617313       1.59323463      44.53011954
W        6.37293851      -0.00000000      46.12326104
W        7.96617313       1.59323463      47.71636316
W        6.37293851       0.00000000      49.30951677
W        7.96617313       1.59323463      50.90269038
W        6.37293851       3.18646925       0.79657260
W        7.96617313       4.77970388       2.38974621
W        6.37293851       3.18646925       3.98289982
W        7.96617313       4.77970388       5.57600194
W        6.37293851       3.18646925       7.16914343
W        7.96617313       4.77970388       8.76232545
W        6.37293851       3.18646925      10.35552367
W        7.96617313       4.77970388      11.94873874
W        6.37293851       3.18646925      13.54195690
W        7.96617313       4.77970388      15.13512341
W        6.37293851       3.18646925      16.72824439
W        7.96617313       4.77970388      18.32140151
W        6.37293851       3.18646925      19.91456100
W        7.96617313       4.77970388      21.50772269
W        6.37293851       3.18646925      23.10091978
W        7.96617313       4.77970388      24.69409217
W        6.37293851       3.18646925      27.00517081
W        7.96617313       4.77970388      28.59834319
W        6.37293851       3.18646925      30.19154029
W        7.96617313       4.77970388      31.78470197
W        6.37293851       3.18646925      33.37786147
W        7.96617313       4.77970388      34.97101859
W        6.37293851       3.18646925      36.56413957
W        7.96617313       4.77970388      38.15730608
W        6.37293851       3.18646925      39.75052423
W        7.96617313       4.77970388      41.34373930
W        6.37293851       3.18646925      42.93693752
W        7.96617313       4.77970388      44.53011954
W        6.37293851       3.18646925      46.12326104
W        7.96617313       4.77970388      47.71636316
W        6.37293851       3.18646925      49.30951677
W        7.96617313       4.77970388      50.90269038
W        6.37293851       6.37293851       0.79657260
W        7.96617313       7.96617313       2.38974621
W        6.37293851       6.37293851       3.98289982
W        7.96617313       7.96617313       5.57600194
W        6.37293851       6.37293851       7.16914343
W        7.96617313       7.96617313       8.76232545
W        6.37293851       6.37293851      10.35552367
W        7.96617313       7.96617313      11.94873874
W        6.37293851       6.37293851      13.54195690
W        7.96617313       7.96617313      15.13512341
W        6.37293851       6.37293851      16.72824439
W        7.96617313       7.96617313      18.32140151
W        6.37293851       6.37293851      19.91456100
W        7.96617313       7.96617313      21.50772269
W        6.37293851       6.37293851      23.10091978
W        7.96617313       7.96617313      24.69409217
W        6.37293851       6.37293851      27.00517081
W        7.96617313       7.96617313      28.59834319
W        6.37293851       6.37293851      30.19154029
W        7.96617313       7.96617313      31.78470197
W        6.37293851       6.37293851      33.37786147
W        7.96617313       7.96617313      34.97101859
W        6.37293851       6.37293851      36.56413957
W        7.96617313       7.96617313      38.15730608
W        6.37293851       6.37293851      39.75052423
W        7.96617313       7.96617313      41.34373930
W        6.37293851       6.37293851      42.93693752
W        7.96617313       7.96617313      44.53011954
W        6.37293851       6.37293851      46.12326104
W        7.96617313       7.96617313      47.71636316
W        6.37293851       6.37293851      49.30951677
W        7.96617313       7.96617313      50.90269038
288
Lattice="9.559407760912599 1.5551574685670926e-18 -1.2681778328733722e-17 1.5551574685670926e-18 9.559407760912599 -3.802032394954696e-17 -6.226046143134533e-17 -1.9250595450418562e-16 51.801827080653055" Properties=species:S:1:pos:R:3 vacuum_gap_Ang=0.8205128205128205 frame_index=8 pbc="T T T"
W       -0.00000000       0.00000000       0.79657260
W        1.59323463       1.59323463       2.38974621
W       -0.00000000       0.00000000       3.98289982
W        1.59323463       1.59323463       5.57600194
W        0.00000000       0.00000000       7.16914343
W        1.59323463       1.59323463       8.76232545
W       -0.00000000      -0.00000000      10.35552367
W        1.59323463       1.59323463      11.94873874
W        0.00000000      -0.00000000      13.54195690
W        1.59323463       1.59323463      15.13512341
W        0.00000000       0.00000000      16.72824439
W        1.59323463       1.59323463      18.32140151
W        0.00000000       0.00000000      19.91456100
W        1.59323463       1.59323463      21.50772269
W       -0.00000000      -0.00000000      23.10091978
W        1.59323463       1.59323463      24.69409217
W        0.00000000       0.00000000      27.10773491
W        1.59323463       1.59323463      28.70090730
W        0.00000000      -0.00000000      30.29410439
W        1.59323463       1.59323463      31.88726608
W        0.00000000       0.00000000      33.48042557
W        1.59323463       1.59323463      35.07358269
W        0.00000000      -0.00000000      36.66670368
W        1.59323463       1.59323463      38.25987018
W       -0.00000000      -0.00000000      39.85308834
W        1.59323463       1.59323463      41.44630341
W        0.00000000      -0.00000000      43.03950163
W        1.59323463       1.59323463      44.63268365
W        0.00000000      -0.00000000      46.22582514
W        1.59323463       1.59323463      47.81892726
W       -0.00000000      -0.00000000      49.41208087
W        1.59323463       1.59323463      51.00525448
W       -0.00000000       3.18646925       0.79657260
W        1.59323463       4.77970388       2.38974621
W       -0.00000000       3.18646925       3.98289982
W        1.59323463       4.77970388       5.57600194
W        0.00000000       3.18646925       7.16914343
W        1.59323463       4.77970388       8.76232545
W        0.00000000       3.18646925      10.35552367
W        1.59323463       4.77970388      11.94873874
W       -0.00000000       3.18646925      13.54195690
W        1.59323463       4.77970388      15.13512341
W       -0.00000000       3.18646925      16.72824439
W        1.59323463       4.77970388      18.32140151
W        0.00000000       3.18646925      19.91456100
W        1.59323463       4.77970388      21.50772269
W        0.00000000       3.18646925      23.10091978
W        1.59323463       4.77970388      24.69409217
W        0.00000000       3.18646925      27.10773491
W        1.59323463       4.77970388      28.70090730
W       -0.00000000       3.18646925      30.29410439
W        1.59323463       4.77970388      31.88726608
W        0.00000000       3.18646925      33.48042557
W        1.59323463       4.77970388      35.07358269
W        0.00000000       3.18646925      36.66670368
W        1.59323463       4.77970388      38.25987018
W        0.00000000       3.18646925      39.85308834
W        1.59323463       4.77970388      41.44630341
W        0.00000000       3.18646925      43.03950163
W        1.59323463       4.77970388      44.63268365
W        0.00000000       3.18646925      46.22582514
W        1.59323463       4.77970388      47.81892726
W        0.00000000       3.18646925      49.41208087
W        1.59323463       4.77970388      51.00525448
W        0.00000000       6.37293851       0.79657260
W        1.59323463       7.96617313       2.38974621
W       -0.00000000       6.37293851       3.98289982
W        1.59323463       7.96617313       5.57600194
W        0.00000000       6.37293851       7.16914343
W        1.59323463       7.96617313       8.76232545
W       -0.00000000       6.37293851      10.35552367
W        1.59323463       7.96617313      11.94873874
W        0.00000000       6.37293851      13.54195690
W        1.59323463       7.96617313      15.13512341
W       -0.00000000       6.37293851      16.72824439
W        1.59323463       7.96617313      18.32140151
W        0.00000000       6.37293851      19.91456100
W        1.59323463       7.96617313      21.50772269
W        0.00000000       6.37293851      23.10091978
W        1.59323463       7.96617313      24.69409217
W       -0.00000000       6.37293851      27.10773491
W        1.59323463       7.96617313      28.70090730
W        0.00000000       6.37293851      30.29410439
W        1.59323463       7.96617313      31.88726608
W       -0.00000000       6.37293851      33.48042557
W        1.59323463       7.96617313      35.07358269
W        0.00000000       6.37293851      36.66670368
W        1.59323463       7.96617313      38.25987018
W       -0.00000000       6.37293851      39.85308834
W        1.59323463       7.96617313      41.44630341
W        0.00000000       6.37293851      43.03950163
W        1.59323463       7.96617313      44.63268365
W       -0.00000000       6.37293851      46.22582514
W        1.59323463       7.96617313      47.81892726
W       -0.00000000       6.37293851      49.41208087
W        1.59323463       7.96617313      51.00525448
W        3.18646925      -0.00000000       0.79657260
W        4.77970388       1.59323463       2.38974621
W        3.18646925       0.00000000       3.98289982
W        4.77970388       1.59323463       5.57600194
W        3.18646925       0.00000000       7.16914343
W        4.77970388       1.59323463       8.76232545
W        3.18646925       0.00000000      10.35552367
W        4.77970388       1.59323463      11.94873874
W        3.18646925       0.00000000      13.54195690
W        4.77970388       1.59323463      15.13512341
W        3.18646925      -0.00000000      16.72824439
W        4.77970388       1.59323463      18.32140151
W        3.18646925      -0.00000000      19.91456100
W        4.77970388       1.59323463      21.50772269
W        3.18646925       0.00000000      23.10091978
W        4.77970388       1.59323463      24.69409217
W        3.18646925       0.00000000      27.10773491
W        4.77970388       1.59323463      28.70090730
W        3.18646925      -0.00000000      30.29410439
W        4.77970388       1.59323463      31.88726608
W        3.18646925       0.00000000      33.48042557
W        4.77970388       1.59323463      35.07358269
W        3.18646925      -0.00000000      36.66670368
W        4.77970388       1.59323463      38.25987018
W        3.18646925       0.00000000      39.85308834
W        4.77970388       1.59323463      41.44630341
W        3.18646925      -0.00000000      43.03950163
W        4.77970388       1.59323463      44.63268365
W        3.18646925       0.00000000      46.22582514
W        4.77970388       1.59323463      47.81892726
W        3.18646925       0.00000000      49.41208087
W        4.77970388       1.59323463      51.00525448
W        3.18646925       3.18646925       0.79657260
W        4.77970388       4.77970388       2.38974621
W        3.18646925       3.18646925       3.98289982
W        4.77970388       4.77970388       5.57600194
W        3.18646925       3.18646925       7.16914343
W        4.77970388       4.77970388       8.76232545
W        3.18646925       3.18646925      10.35552367
W        4.77970388       4.77970388      11.94873874
W        3.18646925       3.18646925      13.54195690
W        4.77970388       4.77970388      15.13512341
W        3.18646925       3.18646925      16.72824439
W        4.77970388       4.77970388      18.32140151
W        3.18646925       3.18646925      19.91456100
W        4.77970388       4.77970388      21.50772269
W        3.18646925       3.18646925      23.10091978
W        4.77970388       4.77970388      24.69409217
W        3.18646925       3.18646925      27.10773491
W        4.77970388       4.77970388      28.70090730
W        3.18646925       3.18646925      30.29410439
W        4.77970388       4.77970388      31.88726608
W        3.18646925       3.18646925      33.48042557
W        4.77970388       4.77970388      35.07358269
W        3.18646925       3.18646925      36.66670368
W        4.77970388       4.77970388      38.25987018
W        3.18646925       3.18646925      39.85308834
W        4.77970388       4.77970388      41.44630341
W        3.18646925       3.18646925      43.03950163
W        4.77970388       4.77970388      44.63268365
W        3.18646925       3.18646925      46.22582514
W        4.77970388       4.77970388      47.81892726
W        3.18646925       3.18646925      49.41208087
W        4.77970388       4.77970388      51.00525448
W        3.18646925       6.37293851       0.79657260
W        4.77970388       7.96617313       2.38974621
W        3.18646925       6.37293851       3.98289982
W        4.77970388       7.96617313       5.57600194
W        3.18646925       6.37293851       7.16914343
W        4.77970388       7.96617313       8.76232545
W        3.18646925       6.37293851      10.35552367
W        4.77970388       7.96617313      11.94873874
W        3.18646925       6.37293851      13.54195690
W        4.77970388       7.96617313      15.13512341
W        3.18646925       6.37293851      16.72824439
W        4.77970388       7.96617313      18.32140151
W        3.18646925       6.37293851      19.91456100
W        4.77970388       7.96617313      21.50772269
W        3.18646925       6.37293851      23.10091978
W        4.77970388       7.96617313      24.69409217
W        3.18646925       6.37293851      27.10773491
W        4.77970388       7.96617313      28.70090730
W        3.18646925       6.37293851      30.29410439
W        4.77970388       7.96617313      31.88726608
W        3.18646925       6.37293851      33.48042557
W        4.77970388       7.96617313      35.07358269
W        3.18646925       6.37293851      36.66670368
W        4.77970388       7.96617313      38.25987018
W        3.18646925       6.37293851      39.85308834
W        4.77970388       7.96617313      41.44630341
W        3.18646925       6.37293851      43.03950163
W        4.77970388       7.96617313      44.63268365
W        3.18646925       6.37293851      46.22582514
W        4.77970388       7.96617313      47.81892726
W        3.18646925       6.37293851      49.41208087
W        4.77970388       7.96617313      51.00525448
W        6.37293851       0.00000000       0.79657260
W        7.96617313       1.59323463       2.38974621
W        6.37293851       0.00000000       3.98289982
W        7.96617313       1.59323463       5.57600194
W        6.37293851       0.00000000       7.16914343
W        7.96617313       1.59323463       8.76232545
W        6.37293851      -0.00000000      10.35552367
W        7.96617313       1.59323463      11.94873874
W        6.37293851       0.00000000      13.54195690
W        7.96617313       1.59323463      15.13512341
W        6.37293851      -0.00000000      16.72824439
W        7.96617313       1.59323463      18.32140151
W        6.37293851      -0.00000000      19.91456100
W        7.96617313       1.59323463      21.50772269
W        6.37293851       0.00000000      23.10091978
W        7.96617313       1.59323463      24.69409217
W        6.37293851      -0.00000000      27.10773491
W        7.96617313       1.59323463      28.70090730
W        6.37293851       0.00000000      30.29410439
W        7.96617313       1.59323463      31.88726608
W        6.37293851      -0.00000000      33.48042557
W        7.96617313       1.59323463      35.07358269
W        6.37293851       0.00000000      36.66670368
W        7.96617313       1.59323463      38.25987018
W        6.37293851      -0.00000000      39.85308834
W        7.96617313       1.59323463      41.44630341
W        6.37293851      -0.00000000      43.03950163
W        7.96617313       1.59323463      44.63268365
W        6.37293851      -0.00000000      46.22582514
W        7.96617313       1.59323463      47.81892726
W        6.37293851       0.00000000      49.41208087
W        7.96617313       1.59323463      51.00525448
W        6.37293851       3.18646925       0.79657260
W        7.96617313       4.77970388       2.38974621
W        6.37293851       3.18646925       3.98289982
W        7.96617313       4.77970388       5.57600194
W        6.37293851       3.18646925       7.16914343
W        7.96617313       4.77970388       8.76232545
W        6.37293851       3.18646925      10.35552367
W        7.96617313       4.77970388      11.94873874
W        6.37293851       3.18646925      13.54195690
W        7.96617313       4.77970388      15.13512341
W        6.37293851       3.18646925      16.72824439
W        7.96617313       4.77970388      18.32140151
W        6.37293851       3.18646925      19.91456100
W        7.96617313       4.77970388      21.50772269
W        6.37293851       3.18646925      23.10091978
W        7.96617313       4.77970388      24.69409217
W        6.37293851       3.18646925      27.10773491
W        7.96617313       4.77970388      28.70090730
W        6.37293851       3.18646925      30.29410439
W        7.96617313       4.77970388      31.88726608
W        6.37293851       3.18646925      33.48042557
W        7.96617313       4.77970388      35.07358269
W        6.37293851       3.18646925      36.66670368
W        7.96617313       4.77970388      38.25987018
W        6.37293851       3.18646925      39.85308834
W        7.96617313       4.77970388      41.44630341
W        6.37293851       3.18646925      43.03950163
W        7.96617313       4.77970388      44.63268365
W        6.37293851       3.18646925      46.22582514
W        7.96617313       4.77970388      47.81892726
W        6.37293851       3.18646925      49.41208087
W        7.96617313       4.77970388      51.00525448
W        6.37293851       6.37293851       0.79657260
W        7.96617313       7.96617313       2.38974621
W        6.37293851       6.37293851       3.98289982
W        7.96617313       7.96617313       5.57600194
W        6.37293851       6.37293851       7.16914343
W        7.96617313       7.96617313       8.76232545
W        6.37293851       6.37293851      10.35552367
W        7.96617313       7.96617313      11.94873874
W        6.37293851       6.37293851      13.54195690
W        7.96617313       7.96617313      15.13512341
W        6.37293851       6.37293851      16.72824439
W        7.96617313       7.96617313      18.32140151
W        6.37293851       6.37293851      19.91456100
W        7.96617313       7.96617313      21.50772269
W        6.37293851       6.37293851      23.10091978
W        7.96617313       7.96617313      24.69409217
W        6.37293851       6.37293851      27.10773491
W        7.96617313       7.96617313      28.70090730
W        6.37293851       6.37293851      30.29410439
W        7.96617313       7.96617313      31.88726608
W        6.37293851       6.37293851      33.48042557
W        7.96617313       7.96617313      35.07358269
W        6.37293851       6.37293851      36.66670368
W        7.96617313       7.96617313      38.25987018
W        6.37293851       6.37293851      39.85308834
W        7.96617313       7.96617313      41.44630341
W        6.37293851       6.37293851      43.03950163
W        7.96617313       7.96617313      44.63268365
W        6.37293851       6.37293851      46.22582514
W        7.96617313       7.96617313      47.81892726
W        6.37293851       6.37293851      49.41208087
W        7.96617313       7.96617313      51.00525448
288
Lattice="9.559407760912599 1.5551574685670926e-18 -1.2681778328733722e-17 1.5551574685670926e-18 9.559407760912599 -3.802032394954696e-17 -6.226046143134533e-17 -1.9250595450418562e-16 51.90439118321716" Properties=species:S:1:pos:R:3 vacuum_gap_Ang=0.923076923076923 frame_index=9 pbc="T T T"
W       -0.00000000       0.00000000       0.79657260
W        1.59323463       1.59323463       2.38974621
W       -0.00000000       0.00000000       3.98289982
W        1.59323463       1.59323463       5.57600194
W        0.00000000       0.00000000       7.16914343
W        1.59323463       1.59323463       8.76232545
W       -0.00000000      -0.00000000      10.35552367
W        1.59323463       1.59323463      11.94873874
W        0.00000000      -0.00000000      13.54195690
W        1.59323463       1.59323463      15.13512341
W        0.00000000       0.00000000      16.72824439
W        1.59323463       1.59323463      18.32140151
W        0.00000000       0.00000000      19.91456100
W        1.59323463       1.59323463      21.50772269
W       -0.00000000      -0.00000000      23.10091978
W        1.59323463       1.59323463      24.69409217
W        0.00000000       0.00000000      27.21029902
W        1.59323463       1.59323463      28.80347140
W        0.00000000      -0.00000000      30.39666849
W        1.59323463       1.59323463      31.98983018
W        0.00000000       0.00000000      33.58298967
W        1.59323463       1.59323463      35.17614680
W        0.00000000      -0.00000000      36.76926778
W        1.59323463       1.59323463      38.36243429
W       -0.00000000      -0.00000000      39.95565244
W        1.59323463       1.59323463      41.54886751
W        0.00000000      -0.00000000      43.14206573
W        1.59323463       1.59323463      44.73524775
W        0.00000000      -0.00000000      46.32838925
W        1.59323463       1.59323463      47.92149136
W       -0.00000000      -0.00000000      49.51464497
W        1.59323463       1.59323463      51.10781859
W       -0.00000000       3.18646925       0.79657260
W        1.59323463       4.77970388       2.38974621
W       -0.00000000       3.18646925       3.98289982
W        1.59323463       4.77970388       5.57600194
W        0.00000000       3.18646925       7.16914343
W        1.59323463       4.77970388       8.76232545
W        0.00000000       3.18646925      10.35552367
W        1.59323463       4.77970388      11.94873874
W       -0.00000000       3.18646925      13.54195690
W        1.59323463       4.77970388      15.13512341
W       -0.00000000       3.18646925      16.72824439
W        1.59323463       4.77970388      18.32140151
W        0.00000000       3.18646925      19.91456100
W        1.59323463       4.77970388      21.50772269
W        0.00000000       3.18646925      23.10091978
W        1.59323463       4.77970388      24.69409217
W        0.00000000       3.18646925      27.21029902
W        1.59323463       4.77970388      28.80347140
W       -0.00000000       3.18646925      30.39666849
W        1.59323463       4.77970388      31.98983018
W        0.00000000       3.18646925      33.58298967
W        1.59323463       4.77970388      35.17614680
W        0.00000000       3.18646925      36.76926778
W        1.59323463       4.77970388      38.36243429
W        0.00000000       3.18646925      39.95565244
W        1.59323463       4.77970388      41.54886751
W        0.00000000       3.18646925      43.14206573
W        1.59323463       4.77970388      44.73524775
W        0.00000000       3.18646925      46.32838925
W        1.59323463       4.77970388      47.92149136
W        0.00000000       3.18646925      49.51464497
W        1.59323463       4.77970388      51.10781859
W        0.00000000       6.37293851       0.79657260
W        1.59323463       7.96617313       2.38974621
W       -0.00000000       6.37293851       3.98289982
W        1.59323463       7.96617313       5.57600194
W        0.00000000       6.37293851       7.16914343
W        1.59323463       7.96617313       8.76232545
W       -0.00000000       6.37293851      10.35552367
W        1.59323463       7.96617313      11.94873874
W        0.00000000       6.37293851      13.54195690
W        1.59323463       7.96617313      15.13512341
W       -0.00000000       6.37293851      16.72824439
W        1.59323463       7.96617313      18.32140151
W        0.00000000       6.37293851      19.91456100
W        1.59323463       7.96617313      21.50772269
W        0.00000000       6.37293851      23.10091978
W        1.59323463       7.96617313      24.69409217
W       -0.00000000       6.37293851      27.21029902
W        1.59323463       7.96617313      28.80347140
W        0.00000000       6.37293851      30.39666849
W        1.59323463       7.96617313      31.98983018
W       -0.00000000       6.37293851      33.58298967
W        1.59323463       7.96617313      35.17614680
W        0.00000000       6.37293851      36.76926778
W        1.59323463       7.96617313      38.36243429
W       -0.00000000       6.37293851      39.95565244
W        1.59323463       7.96617313      41.54886751
W        0.00000000       6.37293851      43.14206573
W        1.59323463       7.96617313      44.73524775
W       -0.00000000       6.37293851      46.32838925
W        1.59323463       7.96617313      47.92149136
W       -0.00000000       6.37293851      49.51464497
W        1.59323463       7.96617313      51.10781859
W        3.18646925      -0.00000000       0.79657260
W        4.77970388       1.59323463       2.38974621
W        3.18646925       0.00000000       3.98289982
W        4.77970388       1.59323463       5.57600194
W        3.18646925       0.00000000       7.16914343
W        4.77970388       1.59323463       8.76232545
W        3.18646925       0.00000000      10.35552367
W        4.77970388       1.59323463      11.94873874
W        3.18646925       0.00000000      13.54195690
W        4.77970388       1.59323463      15.13512341
W        3.18646925      -0.00000000      16.72824439
W        4.77970388       1.59323463      18.32140151
W        3.18646925      -0.00000000      19.91456100
W        4.77970388       1.59323463      21.50772269
W        3.18646925       0.00000000      23.10091978
W        4.77970388       1.59323463      24.69409217
W        3.18646925       0.00000000      27.21029902
W        4.77970388       1.59323463      28.80347140
W        3.18646925      -0.00000000      30.39666849
W        4.77970388       1.59323463      31.98983018
W        3.18646925       0.00000000      33.58298967
W        4.77970388       1.59323463      35.17614680
W        3.18646925      -0.00000000      36.76926778
W        4.77970388       1.59323463      38.36243429
W        3.18646925       0.00000000      39.95565244
W        4.77970388       1.59323463      41.54886751
W        3.18646925      -0.00000000      43.14206573
W        4.77970388       1.59323463      44.73524775
W        3.18646925       0.00000000      46.32838925
W        4.77970388       1.59323463      47.92149136
W        3.18646925       0.00000000      49.51464497
W        4.77970388       1.59323463      51.10781859
W        3.18646925       3.18646925       0.79657260
W        4.77970388       4.77970388       2.38974621
W        3.18646925       3.18646925       3.98289982
W        4.77970388       4.77970388       5.57600194
W        3.18646925       3.18646925       7.16914343
W        4.77970388       4.77970388       8.76232545
W        3.18646925       3.18646925      10.35552367
W        4.77970388       4.77970388      11.94873874
W        3.18646925       3.18646925      13.54195690
W        4.77970388       4.77970388      15.13512341
W        3.18646925       3.18646925      16.72824439
W        4.77970388       4.77970388      18.32140151
W        3.18646925       3.18646925      19.91456100
W        4.77970388       4.77970388      21.50772269
W        3.18646925       3.18646925      23.10091978
W        4.77970388       4.77970388      24.69409217
W        3.18646925       3.18646925      27.21029902
W        4.77970388       4.77970388      28.80347140
W        3.18646925       3.18646925      30.39666849
W        4.77970388       4.77970388      31.98983018
W        3.18646925       3.18646925      33.58298967
W        4.77970388       4.77970388      35.17614680
W        3.18646925       3.18646925      36.76926778
W        4.77970388       4.77970388      38.36243429
W        3.18646925       3.18646925      39.95565244
W        4.77970388       4.77970388      41.54886751
W        3.18646925       3.18646925      43.14206573
W        4.77970388       4.77970388      44.73524775
W        3.18646925       3.18646925      46.32838925
W        4.77970388       4.77970388      47.92149136
W        3.18646925       3.18646925      49.51464497
W        4.77970388       4.77970388      51.10781859
W        3.18646925       6.37293851       0.79657260
W        4.77970388       7.96617313       2.38974621
W        3.18646925       6.37293851       3.98289982
W        4.77970388       7.96617313       5.57600194
W        3.18646925       6.37293851       7.16914343
W        4.77970388       7.96617313       8.76232545
W        3.18646925       6.37293851      10.35552367
W        4.77970388       7.96617313      11.94873874
W        3.18646925       6.37293851      13.54195690
W        4.77970388       7.96617313      15.13512341
W        3.18646925       6.37293851      16.72824439
W        4.77970388       7.96617313      18.32140151
W        3.18646925       6.37293851      19.91456100
W        4.77970388       7.96617313      21.50772269
W        3.18646925       6.37293851      23.10091978
W        4.77970388       7.96617313      24.69409217
W        3.18646925       6.37293851      27.21029902
W        4.77970388       7.96617313      28.80347140
W        3.18646925       6.37293851      30.39666849
W        4.77970388       7.96617313      31.98983018
W        3.18646925       6.37293851      33.58298967
W        4.77970388       7.96617313      35.17614680
W        3.18646925       6.37293851      36.76926778
W        4.77970388       7.96617313      38.36243429
W        3.18646925       6.37293851      39.95565244
W        4.77970388       7.96617313      41.54886751
W        3.18646925       6.37293851      43.14206573
W        4.77970388       7.96617313      44.73524775
W        3.18646925       6.37293851      46.32838925
W        4.77970388       7.96617313      47.92149136
W        3.18646925       6.37293851      49.51464497
W        4.77970388       7.96617313      51.10781859
W        6.37293851       0.00000000       0.79657260
W        7.96617313       1.59323463       2.38974621
W        6.37293851       0.00000000       3.98289982
W        7.96617313       1.59323463       5.57600194
W        6.37293851       0.00000000       7.16914343
W        7.96617313       1.59323463       8.76232545
W        6.37293851      -0.00000000      10.35552367
W        7.96617313       1.59323463      11.94873874
W        6.37293851       0.00000000      13.54195690
W        7.96617313       1.59323463      15.13512341
W        6.37293851      -0.00000000      16.72824439
W        7.96617313       1.59323463      18.32140151
W        6.37293851      -0.00000000      19.91456100
W        7.96617313       1.59323463      21.50772269
W        6.37293851       0.00000000      23.10091978
W        7.96617313       1.59323463      24.69409217
W        6.37293851      -0.00000000      27.21029902
W        7.96617313       1.59323463      28.80347140
W        6.37293851       0.00000000      30.39666849
W        7.96617313       1.59323463      31.98983018
W        6.37293851      -0.00000000      33.58298967
W        7.96617313       1.59323463      35.17614680
W        6.37293851       0.00000000      36.76926778
W        7.96617313       1.59323463      38.36243429
W        6.37293851      -0.00000000      39.95565244
W        7.96617313       1.59323463      41.54886751
W        6.37293851      -0.00000000      43.14206573
W        7.96617313       1.59323463      44.73524775
W        6.37293851      -0.00000000      46.32838925
W        7.96617313       1.59323463      47.92149136
W        6.37293851       0.00000000      49.51464497
W        7.96617313       1.59323463      51.10781859
W        6.37293851       3.18646925       0.79657260
W        7.96617313       4.77970388       2.38974621
W        6.37293851       3.18646925       3.98289982
W        7.96617313       4.77970388       5.57600194
W        6.37293851       3.18646925       7.16914343
W        7.96617313       4.77970388       8.76232545
W        6.37293851       3.18646925      10.35552367
W        7.96617313       4.77970388      11.94873874
W        6.37293851       3.18646925      13.54195690
W        7.96617313       4.77970388      15.13512341
W        6.37293851       3.18646925      16.72824439
W        7.96617313       4.77970388      18.32140151
W        6.37293851       3.18646925      19.91456100
W        7.96617313       4.77970388      21.50772269
W        6.37293851       3.18646925      23.10091978
W        7.96617313       4.77970388      24.69409217
W        6.37293851       3.18646925      27.21029902
W        7.96617313       4.77970388      28.80347140
W        6.37293851       3.18646925      30.39666849
W        7.96617313       4.77970388      31.98983018
W        6.37293851       3.18646925      33.58298967
W        7.96617313       4.77970388      35.17614680
W        6.37293851       3.18646925      36.76926778
W        7.96617313       4.77970388      38.36243429
W        6.37293851       3.18646925      39.95565244
W        7.96617313       4.77970388      41.54886751
W        6.37293851       3.18646925      43.14206573
W        7.96617313       4.77970388      44.73524775
W        6.37293851       3.18646925      46.32838925
W        7.96617313       4.77970388      47.92149136
W        6.37293851       3.18646925      49.51464497
W        7.96617313       4.77970388      51.10781859
W        6.37293851       6.37293851       0.79657260
W        7.96617313       7.96617313       2.38974621
W        6.37293851       6.37293851       3.98289982
W        7.96617313       7.96617313       5.57600194
W        6.37293851       6.37293851       7.16914343
W        7.96617313       7.96617313       8.76232545
W        6.37293851       6.37293851      10.35552367
W        7.96617313       7.96617313      11.94873874
W        6.37293851       6.37293851      13.54195690
W        7.96617313       7.96617313      15.13512341
W        6.37293851       6.37293851      16.72824439
W        7.96617313       7.96617313      18.32140151
W        6.37293851       6.37293851      19.91456100
W        7.96617313       7.96617313      21.50772269
W        6.37293851       6.37293851      23.10091978
W        7.96617313       7.96617313      24.69409217
W        6.37293851       6.37293851      27.21029902
W        7.96617313       7.96617313      28.80347140
W        6.37293851       6.37293851      30.39666849
W        7.96617313       7.96617313      31.98983018
W        6.37293851       6.37293851      33.58298967
W        7.96617313       7.96617313      35.17614680
W        6.37293851       6.37293851      36.76926778
W        7.96617313       7.96617313      38.36243429
W        6.37293851       6.37293851      39.95565244
W        7.96617313       7.96617313      41.54886751
W        6.37293851       6.37293851      43.14206573
W        7.96617313       7.96617313      44.73524775
W        6.37293851       6.37293851      46.32838925
W        7.96617313       7.96617313      47.92149136
W        6.37293851       6.37293851      49.51464497
W        7.96617313       7.96617313      51.10781859
288
Lattice="9.559407760912599 1.5551574685670926e-18 -1.2681778328733722e-17 1.5551574685670926e-18 9.559407760912599 -3.802032394954696e-17 -6.226046143134533e-17 -1.9250595450418562e-16 52.00695528578126" Properties=species:S:1:pos:R:3 vacuum_gap_Ang=1.0256410256410255 frame_index=10 pbc="T T T"
W       -0.00000000       0.00000000       0.79657260
W        1.59323463       1.59323463       2.38974621
W       -0.00000000       0.00000000       3.98289982
W        1.59323463       1.59323463       5.57600194
W        0.00000000       0.00000000       7.16914343
W        1.59323463       1.59323463       8.76232545
W       -0.00000000      -0.00000000      10.35552367
W        1.59323463       1.59323463      11.94873874
W        0.00000000      -0.00000000      13.54195690
W        1.59323463       1.59323463      15.13512341
W        0.00000000       0.00000000      16.72824439
W        1.59323463       1.59323463      18.32140151
W        0.00000000       0.00000000      19.91456100
W        1.59323463       1.59323463      21.50772269
W       -0.00000000      -0.00000000      23.10091978
W        1.59323463       1.59323463      24.69409217
W        0.00000000       0.00000000      27.31286312
W        1.59323463       1.59323463      28.90603550
W        0.00000000      -0.00000000      30.49923259
W        1.59323463       1.59323463      32.09239428
W        0.00000000       0.00000000      33.68555377
W        1.59323463       1.59323463      35.27871090
W        0.00000000      -0.00000000      36.87183188
W        1.59323463       1.59323463      38.46499839
W       -0.00000000      -0.00000000      40.05821654
W        1.59323463       1.59323463      41.65143161
W        0.00000000      -0.00000000      43.24462983
W        1.59323463       1.59323463      44.83781185
W        0.00000000      -0.00000000      46.43095335
W        1.59323463       1.59323463      48.02405547
W       -0.00000000      -0.00000000      49.61720907
W        1.59323463       1.59323463      51.21038269
W       -0.00000000       3.18646925       0.79657260
W        1.59323463       4.77970388       2.38974621
W       -0.00000000       3.18646925       3.98289982
W        1.59323463       4.77970388       5.57600194
W        0.00000000       3.18646925       7.16914343
W        1.59323463       4.77970388       8.76232545
W        0.00000000       3.18646925      10.35552367
W        1.59323463       4.77970388      11.94873874
W       -0.00000000       3.18646925      13.54195690
W        1.59323463       4.77970388      15.13512341
W       -0.00000000       3.18646925      16.72824439
W        1.59323463       4.77970388      18.32140151
W        0.00000000       3.18646925      19.91456100
W        1.59323463       4.77970388      21.50772269
W        0.00000000       3.18646925      23.10091978
W        1.59323463       4.77970388      24.69409217
W        0.00000000       3.18646925      27.31286312
W        1.59323463       4.77970388      28.90603550
W       -0.00000000       3.18646925      30.49923259
W        1.59323463       4.77970388      32.09239428
W        0.00000000       3.18646925      33.68555377
W        1.59323463       4.77970388      35.27871090
W        0.00000000       3.18646925      36.87183188
W        1.59323463       4.77970388      38.46499839
W        0.00000000       3.18646925      40.05821654
W        1.59323463       4.77970388      41.65143161
W        0.00000000       3.18646925      43.24462983
W        1.59323463       4.77970388      44.83781185
W        0.00000000       3.18646925      46.43095335
W        1.59323463       4.77970388      48.02405547
W        0.00000000       3.18646925      49.61720907
W        1.59323463       4.77970388      51.21038269
W        0.00000000       6.37293851       0.79657260
W        1.59323463       7.96617313       2.38974621
W       -0.00000000       6.37293851       3.98289982
W        1.59323463       7.96617313       5.57600194
W        0.00000000       6.37293851       7.16914343
W        1.59323463       7.96617313       8.76232545
W       -0.00000000       6.37293851      10.35552367
W        1.59323463       7.96617313      11.94873874
W        0.00000000       6.37293851      13.54195690
W        1.59323463       7.96617313      15.13512341
W       -0.00000000       6.37293851      16.72824439
W        1.59323463       7.96617313      18.32140151
W        0.00000000       6.37293851      19.91456100
W        1.59323463       7.96617313      21.50772269
W        0.00000000       6.37293851      23.10091978
W        1.59323463       7.96617313      24.69409217
W       -0.00000000       6.37293851      27.31286312
W        1.59323463       7.96617313      28.90603550
W        0.00000000       6.37293851      30.49923259
W        1.59323463       7.96617313      32.09239428
W       -0.00000000       6.37293851      33.68555377
W        1.59323463       7.96617313      35.27871090
W        0.00000000       6.37293851      36.87183188
W        1.59323463       7.96617313      38.46499839
W       -0.00000000       6.37293851      40.05821654
W        1.59323463       7.96617313      41.65143161
W        0.00000000       6.37293851      43.24462983
W        1.59323463       7.96617313      44.83781185
W       -0.00000000       6.37293851      46.43095335
W        1.59323463       7.96617313      48.02405547
W       -0.00000000       6.37293851      49.61720907
W        1.59323463       7.96617313      51.21038269
W        3.18646925      -0.00000000       0.79657260
W        4.77970388       1.59323463       2.38974621
W        3.18646925       0.00000000       3.98289982
W        4.77970388       1.59323463       5.57600194
W        3.18646925       0.00000000       7.16914343
W        4.77970388       1.59323463       8.76232545
W        3.18646925       0.00000000      10.35552367
W        4.77970388       1.59323463      11.94873874
W        3.18646925       0.00000000      13.54195690
W        4.77970388       1.59323463      15.13512341
W        3.18646925      -0.00000000      16.72824439
W        4.77970388       1.59323463      18.32140151
W        3.18646925      -0.00000000      19.91456100
W        4.77970388       1.59323463      21.50772269
W        3.18646925       0.00000000      23.10091978
W        4.77970388       1.59323463      24.69409217
W        3.18646925       0.00000000      27.31286312
W        4.77970388       1.59323463      28.90603550
W        3.18646925      -0.00000000      30.49923259
W        4.77970388       1.59323463      32.09239428
W        3.18646925       0.00000000      33.68555377
W        4.77970388       1.59323463      35.27871090
W        3.18646925      -0.00000000      36.87183188
W        4.77970388       1.59323463      38.46499839
W        3.18646925       0.00000000      40.05821654
W        4.77970388       1.59323463      41.65143161
W        3.18646925      -0.00000000      43.24462983
W        4.77970388       1.59323463      44.83781185
W        3.18646925       0.00000000      46.43095335
W        4.77970388       1.59323463      48.02405547
W        3.18646925       0.00000000      49.61720907
W        4.77970388       1.59323463      51.21038269
W        3.18646925       3.18646925       0.79657260
W        4.77970388       4.77970388       2.38974621
W        3.18646925       3.18646925       3.98289982
W        4.77970388       4.77970388       5.57600194
W        3.18646925       3.18646925       7.16914343
W        4.77970388       4.77970388       8.76232545
W        3.18646925       3.18646925      10.35552367
W        4.77970388       4.77970388      11.94873874
W        3.18646925       3.18646925      13.54195690
W        4.77970388       4.77970388      15.13512341
W        3.18646925       3.18646925      16.72824439
W        4.77970388       4.77970388      18.32140151
W        3.18646925       3.18646925      19.91456100
W        4.77970388       4.77970388      21.50772269
W        3.18646925       3.18646925      23.10091978
W        4.77970388       4.77970388      24.69409217
W        3.18646925       3.18646925      27.31286312
W        4.77970388       4.77970388      28.90603550
W        3.18646925       3.18646925      30.49923259
W        4.77970388       4.77970388      32.09239428
W        3.18646925       3.18646925      33.68555377
W        4.77970388       4.77970388      35.27871090
W        3.18646925       3.18646925      36.87183188
W        4.77970388       4.77970388      38.46499839
W        3.18646925       3.18646925      40.05821654
W        4.77970388       4.77970388      41.65143161
W        3.18646925       3.18646925      43.24462983
W        4.77970388       4.77970388      44.83781185
W        3.18646925       3.18646925      46.43095335
W        4.77970388       4.77970388      48.02405547
W        3.18646925       3.18646925      49.61720907
W        4.77970388       4.77970388      51.21038269
W        3.18646925       6.37293851       0.79657260
W        4.77970388       7.96617313       2.38974621
W        3.18646925       6.37293851       3.98289982
W        4.77970388       7.96617313       5.57600194
W        3.18646925       6.37293851       7.16914343
W        4.77970388       7.96617313       8.76232545
W        3.18646925       6.37293851      10.35552367
W        4.77970388       7.96617313      11.94873874
W        3.18646925       6.37293851      13.54195690
W        4.77970388       7.96617313      15.13512341
W        3.18646925       6.37293851      16.72824439
W        4.77970388       7.96617313      18.32140151
W        3.18646925       6.37293851      19.91456100
W        4.77970388       7.96617313      21.50772269
W        3.18646925       6.37293851      23.10091978
W        4.77970388       7.96617313      24.69409217
W        3.18646925       6.37293851      27.31286312
W        4.77970388       7.96617313      28.90603550
W        3.18646925       6.37293851      30.49923259
W        4.77970388       7.96617313      32.09239428
W        3.18646925       6.37293851      33.68555377
W        4.77970388       7.96617313      35.27871090
W        3.18646925       6.37293851      36.87183188
W        4.77970388       7.96617313      38.46499839
W        3.18646925       6.37293851      40.05821654
W        4.77970388       7.96617313      41.65143161
W        3.18646925       6.37293851      43.24462983
W        4.77970388       7.96617313      44.83781185
W        3.18646925       6.37293851      46.43095335
W        4.77970388       7.96617313      48.02405547
W        3.18646925       6.37293851      49.61720907
W        4.77970388       7.96617313      51.21038269
W        6.37293851       0.00000000       0.79657260
W        7.96617313       1.59323463       2.38974621
W        6.37293851       0.00000000       3.98289982
W        7.96617313       1.59323463       5.57600194
W        6.37293851       0.00000000       7.16914343
W        7.96617313       1.59323463       8.76232545
W        6.37293851      -0.00000000      10.35552367
W        7.96617313       1.59323463      11.94873874
W        6.37293851       0.00000000      13.54195690
W        7.96617313       1.59323463      15.13512341
W        6.37293851      -0.00000000      16.72824439
W        7.96617313       1.59323463      18.32140151
W        6.37293851      -0.00000000      19.91456100
W        7.96617313       1.59323463      21.50772269
W        6.37293851       0.00000000      23.10091978
W        7.96617313       1.59323463      24.69409217
W        6.37293851      -0.00000000      27.31286312
W        7.96617313       1.59323463      28.90603550
W        6.37293851       0.00000000      30.49923259
W        7.96617313       1.59323463      32.09239428
W        6.37293851      -0.00000000      33.68555377
W        7.96617313       1.59323463      35.27871090
W        6.37293851       0.00000000      36.87183188
W        7.96617313       1.59323463      38.46499839
W        6.37293851      -0.00000000      40.05821654
W        7.96617313       1.59323463      41.65143161
W        6.37293851      -0.00000000      43.24462983
W        7.96617313       1.59323463      44.83781185
W        6.37293851      -0.00000000      46.43095335
W        7.96617313       1.59323463      48.02405547
W        6.37293851       0.00000000      49.61720907
W        7.96617313       1.59323463      51.21038269
W        6.37293851       3.18646925       0.79657260
W        7.96617313       4.77970388       2.38974621
W        6.37293851       3.18646925       3.98289982
W        7.96617313       4.77970388       5.57600194
W        6.37293851       3.18646925       7.16914343
W        7.96617313       4.77970388       8.76232545
W        6.37293851       3.18646925      10.35552367
W        7.96617313       4.77970388      11.94873874
W        6.37293851       3.18646925      13.54195690
W        7.96617313       4.77970388      15.13512341
W        6.37293851       3.18646925      16.72824439
W        7.96617313       4.77970388      18.32140151
W        6.37293851       3.18646925      19.91456100
W        7.96617313       4.77970388      21.50772269
W        6.37293851       3.18646925      23.10091978
W        7.96617313       4.77970388      24.69409217
W        6.37293851       3.18646925      27.31286312
W        7.96617313       4.77970388      28.90603550
W        6.37293851       3.18646925      30.49923259
W        7.96617313       4.77970388      32.09239428
W        6.37293851       3.18646925      33.68555377
W        7.96617313       4.77970388      35.27871090
W        6.37293851       3.18646925      36.87183188
W        7.96617313       4.77970388      38.46499839
W        6.37293851       3.18646925      40.05821654
W        7.96617313       4.77970388      41.65143161
W        6.37293851       3.18646925      43.24462983
W        7.96617313       4.77970388      44.83781185
W        6.37293851       3.18646925      46.43095335
W        7.96617313       4.77970388      48.02405547
W        6.37293851       3.18646925      49.61720907
W        7.96617313       4.77970388      51.21038269
W        6.37293851       6.37293851       0.79657260
W        7.96617313       7.96617313       2.38974621
W        6.37293851       6.37293851       3.98289982
W        7.96617313       7.96617313       5.57600194
W        6.37293851       6.37293851       7.16914343
W        7.96617313       7.96617313       8.76232545
W        6.37293851       6.37293851      10.35552367
W        7.96617313       7.96617313      11.94873874
W        6.37293851       6.37293851      13.54195690
W        7.96617313       7.96617313      15.13512341
W        6.37293851       6.37293851      16.72824439
W        7.96617313       7.96617313      18.32140151
W        6.37293851       6.37293851      19.91456100
W        7.96617313       7.96617313      21.50772269
W        6.37293851       6.37293851      23.10091978
W        7.96617313       7.96617313      24.69409217
W        6.37293851       6.37293851      27.31286312
W        7.96617313       7.96617313      28.90603550
W        6.37293851       6.37293851      30.49923259
W        7.96617313       7.96617313      32.09239428
W        6.37293851       6.37293851      33.68555377
W        7.96617313       7.96617313      35.27871090
W        6.37293851       6.37293851      36.87183188
W        7.96617313       7.96617313      38.46499839
W        6.37293851       6.37293851      40.05821654
W        7.96617313       7.96617313      41.65143161
W        6.37293851       6.37293851      43.24462983
W        7.96617313       7.96617313      44.83781185
W        6.37293851       6.37293851      46.43095335
W        7.96617313       7.96617313      48.02405547
W        6.37293851       6.37293851      49.61720907
W        7.96617313       7.96617313      51.21038269
288
Lattice="9.559407760912599 1.5551574685670926e-18 -1.2681778328733722e-17 1.5551574685670926e-18 9.559407760912599 -3.802032394954696e-17 -6.226046143134533e-17 -1.9250595450418562e-16 52.10951938834537" Properties=species:S:1:pos:R:3 vacuum_gap_Ang=1.1282051282051282 frame_index=11 pbc="T T T"
W       -0.00000000       0.00000000       0.79657260
W        1.59323463       1.59323463       2.38974621
W       -0.00000000       0.00000000       3.98289982
W        1.59323463       1.59323463       5.57600194
W        0.00000000       0.00000000       7.16914343
W        1.59323463       1.59323463       8.76232545
W       -0.00000000      -0.00000000      10.35552367
W        1.59323463       1.59323463      11.94873874
W        0.00000000      -0.00000000      13.54195690
W        1.59323463       1.59323463      15.13512341
W        0.00000000       0.00000000      16.72824439
W        1.59323463       1.59323463      18.32140151
W        0.00000000       0.00000000      19.91456100
W        1.59323463       1.59323463      21.50772269
W       -0.00000000      -0.00000000      23.10091978
W        1.59323463       1.59323463      24.69409217
W        0.00000000       0.00000000      27.41542722
W        1.59323463       1.59323463      29.00859960
W        0.00000000      -0.00000000      30.60179670
W        1.59323463       1.59323463      32.19495838
W        0.00000000       0.00000000      33.78811788
W        1.59323463       1.59323463      35.38127500
W        0.00000000      -0.00000000      36.97439598
W        1.59323463       1.59323463      38.56756249
W       -0.00000000      -0.00000000      40.16078064
W        1.59323463       1.59323463      41.75399571
W        0.00000000      -0.00000000      43.34719393
W        1.59323463       1.59323463      44.94037595
W        0.00000000      -0.00000000      46.53351745
W        1.59323463       1.59323463      48.12661957
W       -0.00000000      -0.00000000      49.71977318
W        1.59323463       1.59323463      51.31294679
W       -0.00000000       3.18646925       0.79657260
W        1.59323463       4.77970388       2.38974621
W       -0.00000000       3.18646925       3.98289982
W        1.59323463       4.77970388       5.57600194
W        0.00000000       3.18646925       7.16914343
W        1.59323463       4.77970388       8.76232545
W        0.00000000       3.18646925      10.35552367
W        1.59323463       4.77970388      11.94873874
W       -0.00000000       3.18646925      13.54195690
W        1.59323463       4.77970388      15.13512341
W       -0.00000000       3.18646925      16.72824439
W        1.59323463       4.77970388      18.32140151
W        0.00000000       3.18646925      19.91456100
W        1.59323463       4.77970388      21.50772269
W        0.00000000       3.18646925      23.10091978
W        1.59323463       4.77970388      24.69409217
W        0.00000000       3.18646925      27.41542722
W        1.59323463       4.77970388      29.00859960
W       -0.00000000       3.18646925      30.60179670
W        1.59323463       4.77970388      32.19495838
W        0.00000000       3.18646925      33.78811788
W        1.59323463       4.77970388      35.38127500
W        0.00000000       3.18646925      36.97439598
W        1.59323463       4.77970388      38.56756249
W        0.00000000       3.18646925      40.16078064
W        1.59323463       4.77970388      41.75399571
W        0.00000000       3.18646925      43.34719393
W        1.59323463       4.77970388      44.94037595
W        0.00000000       3.18646925      46.53351745
W        1.59323463       4.77970388      48.12661957
W        0.00000000       3.18646925      49.71977318
W        1.59323463       4.77970388      51.31294679
W        0.00000000       6.37293851       0.79657260
W        1.59323463       7.96617313       2.38974621
W       -0.00000000       6.37293851       3.98289982
W        1.59323463       7.96617313       5.57600194
W        0.00000000       6.37293851       7.16914343
W        1.59323463       7.96617313       8.76232545
W       -0.00000000       6.37293851      10.35552367
W        1.59323463       7.96617313      11.94873874
W        0.00000000       6.37293851      13.54195690
W        1.59323463       7.96617313      15.13512341
W       -0.00000000       6.37293851      16.72824439
W        1.59323463       7.96617313      18.32140151
W        0.00000000       6.37293851      19.91456100
W        1.59323463       7.96617313      21.50772269
W        0.00000000       6.37293851      23.10091978
W        1.59323463       7.96617313      24.69409217
W       -0.00000000       6.37293851      27.41542722
W        1.59323463       7.96617313      29.00859960
W        0.00000000       6.37293851      30.60179670
W        1.59323463       7.96617313      32.19495838
W       -0.00000000       6.37293851      33.78811788
W        1.59323463       7.96617313      35.38127500
W        0.00000000       6.37293851      36.97439598
W        1.59323463       7.96617313      38.56756249
W       -0.00000000       6.37293851      40.16078064
W        1.59323463       7.96617313      41.75399571
W        0.00000000       6.37293851      43.34719393
W        1.59323463       7.96617313      44.94037595
W       -0.00000000       6.37293851      46.53351745
W        1.59323463       7.96617313      48.12661957
W       -0.00000000       6.37293851      49.71977318
W        1.59323463       7.96617313      51.31294679
W        3.18646925      -0.00000000       0.79657260
W        4.77970388       1.59323463       2.38974621
W        3.18646925       0.00000000       3.98289982
W        4.77970388       1.59323463       5.57600194
W        3.18646925       0.00000000       7.16914343
W        4.77970388       1.59323463       8.76232545
W        3.18646925       0.00000000      10.35552367
W        4.77970388       1.59323463      11.94873874
W        3.18646925       0.00000000      13.54195690
W        4.77970388       1.59323463      15.13512341
W        3.18646925      -0.00000000      16.72824439
W        4.77970388       1.59323463      18.32140151
W        3.18646925      -0.00000000      19.91456100
W        4.77970388       1.59323463      21.50772269
W        3.18646925       0.00000000      23.10091978
W        4.77970388       1.59323463      24.69409217
W        3.18646925       0.00000000      27.41542722
W        4.77970388       1.59323463      29.00859960
W        3.18646925      -0.00000000      30.60179670
W        4.77970388       1.59323463      32.19495838
W        3.18646925       0.00000000      33.78811788
W        4.77970388       1.59323463      35.38127500
W        3.18646925      -0.00000000      36.97439598
W        4.77970388       1.59323463      38.56756249
W        3.18646925       0.00000000      40.16078064
W        4.77970388       1.59323463      41.75399571
W        3.18646925      -0.00000000      43.34719393
W        4.77970388       1.59323463      44.94037595
W        3.18646925       0.00000000      46.53351745
W        4.77970388       1.59323463      48.12661957
W        3.18646925       0.00000000      49.71977318
W        4.77970388       1.59323463      51.31294679
W        3.18646925       3.18646925       0.79657260
W        4.77970388       4.77970388       2.38974621
W        3.18646925       3.18646925       3.98289982
W        4.77970388       4.77970388       5.57600194
W        3.18646925       3.18646925       7.16914343
W        4.77970388       4.77970388       8.76232545
W        3.18646925       3.18646925      10.35552367
W        4.77970388       4.77970388      11.94873874
W        3.18646925       3.18646925      13.54195690
W        4.77970388       4.77970388      15.13512341
W        3.18646925       3.18646925      16.72824439
W        4.77970388       4.77970388      18.32140151
W        3.18646925       3.18646925      19.91456100
W        4.77970388       4.77970388      21.50772269
W        3.18646925       3.18646925      23.10091978
W        4.77970388       4.77970388      24.69409217
W        3.18646925       3.18646925      27.41542722
W        4.77970388       4.77970388      29.00859960
W        3.18646925       3.18646925      30.60179670
W        4.77970388       4.77970388      32.19495838
W        3.18646925       3.18646925      33.78811788
W        4.77970388       4.77970388      35.38127500
W        3.18646925       3.18646925      36.97439598
W        4.77970388       4.77970388      38.56756249
W        3.18646925       3.18646925      40.16078064
W        4.77970388       4.77970388      41.75399571
W        3.18646925       3.18646925      43.34719393
W        4.77970388       4.77970388      44.94037595
W        3.18646925       3.18646925      46.53351745
W        4.77970388       4.77970388      48.12661957
W        3.18646925       3.18646925      49.71977318
W        4.77970388       4.77970388      51.31294679
W        3.18646925       6.37293851       0.79657260
W        4.77970388       7.96617313       2.38974621
W        3.18646925       6.37293851       3.98289982
W        4.77970388       7.96617313       5.57600194
W        3.18646925       6.37293851       7.16914343
W        4.77970388       7.96617313       8.76232545
W        3.18646925       6.37293851      10.35552367
W        4.77970388       7.96617313      11.94873874
W        3.18646925       6.37293851      13.54195690
W        4.77970388       7.96617313      15.13512341
W        3.18646925       6.37293851      16.72824439
W        4.77970388       7.96617313      18.32140151
W        3.18646925       6.37293851      19.91456100
W        4.77970388       7.96617313      21.50772269
W        3.18646925       6.37293851      23.10091978
W        4.77970388       7.96617313      24.69409217
W        3.18646925       6.37293851      27.41542722
W        4.77970388       7.96617313      29.00859960
W        3.18646925       6.37293851      30.60179670
W        4.77970388       7.96617313      32.19495838
W        3.18646925       6.37293851      33.78811788
W        4.77970388       7.96617313      35.38127500
W        3.18646925       6.37293851      36.97439598
W        4.77970388       7.96617313      38.56756249
W        3.18646925       6.37293851      40.16078064
W        4.77970388       7.96617313      41.75399571
W        3.18646925       6.37293851      43.34719393
W        4.77970388       7.96617313      44.94037595
W        3.18646925       6.37293851      46.53351745
W        4.77970388       7.96617313      48.12661957
W        3.18646925       6.37293851      49.71977318
W        4.77970388       7.96617313      51.31294679
W        6.37293851       0.00000000       0.79657260
W        7.96617313       1.59323463       2.38974621
W        6.37293851       0.00000000       3.98289982
W        7.96617313       1.59323463       5.57600194
W        6.37293851       0.00000000       7.16914343
W        7.96617313       1.59323463       8.76232545
W        6.37293851      -0.00000000      10.35552367
W        7.96617313       1.59323463      11.94873874
W        6.37293851       0.00000000      13.54195690
W        7.96617313       1.59323463      15.13512341
W        6.37293851      -0.00000000      16.72824439
W        7.96617313       1.59323463      18.32140151
W        6.37293851      -0.00000000      19.91456100
W        7.96617313       1.59323463      21.50772269
W        6.37293851       0.00000000      23.10091978
W        7.96617313       1.59323463      24.69409217
W        6.37293851      -0.00000000      27.41542722
W        7.96617313       1.59323463      29.00859960
W        6.37293851       0.00000000      30.60179670
W        7.96617313       1.59323463      32.19495838
W        6.37293851      -0.00000000      33.78811788
W        7.96617313       1.59323463      35.38127500
W        6.37293851       0.00000000      36.97439598
W        7.96617313       1.59323463      38.56756249
W        6.37293851      -0.00000000      40.16078064
W        7.96617313       1.59323463      41.75399571
W        6.37293851      -0.00000000      43.34719393
W        7.96617313       1.59323463      44.94037595
W        6.37293851      -0.00000000      46.53351745
W        7.96617313       1.59323463      48.12661957
W        6.37293851       0.00000000      49.71977318
W        7.96617313       1.59323463      51.31294679
W        6.37293851       3.18646925       0.79657260
W        7.96617313       4.77970388       2.38974621
W        6.37293851       3.18646925       3.98289982
W        7.96617313       4.77970388       5.57600194
W        6.37293851       3.18646925       7.16914343
W        7.96617313       4.77970388       8.76232545
W        6.37293851       3.18646925      10.35552367
W        7.96617313       4.77970388      11.94873874
W        6.37293851       3.18646925      13.54195690
W        7.96617313       4.77970388      15.13512341
W        6.37293851       3.18646925      16.72824439
W        7.96617313       4.77970388      18.32140151
W        6.37293851       3.18646925      19.91456100
W        7.96617313       4.77970388      21.50772269
W        6.37293851       3.18646925      23.10091978
W        7.96617313       4.77970388      24.69409217
W        6.37293851       3.18646925      27.41542722
W        7.96617313       4.77970388      29.00859960
W        6.37293851       3.18646925      30.60179670
W        7.96617313       4.77970388      32.19495838
W        6.37293851       3.18646925      33.78811788
W        7.96617313       4.77970388      35.38127500
W        6.37293851       3.18646925      36.97439598
W        7.96617313       4.77970388      38.56756249
W        6.37293851       3.18646925      40.16078064
W        7.96617313       4.77970388      41.75399571
W        6.37293851       3.18646925      43.34719393
W        7.96617313       4.77970388      44.94037595
W        6.37293851       3.18646925      46.53351745
W        7.96617313       4.77970388      48.12661957
W        6.37293851       3.18646925      49.71977318
W        7.96617313       4.77970388      51.31294679
W        6.37293851       6.37293851       0.79657260
W        7.96617313       7.96617313       2.38974621
W        6.37293851       6.37293851       3.98289982
W        7.96617313       7.96617313       5.57600194
W        6.37293851       6.37293851       7.16914343
W        7.96617313       7.96617313       8.76232545
W        6.37293851       6.37293851      10.35552367
W        7.96617313       7.96617313      11.94873874
W        6.37293851       6.37293851      13.54195690
W        7.96617313       7.96617313      15.13512341
W        6.37293851       6.37293851      16.72824439
W        7.96617313       7.96617313      18.32140151
W        6.37293851       6.37293851      19.91456100
W        7.96617313       7.96617313      21.50772269
W        6.37293851       6.37293851      23.10091978
W        7.96617313       7.96617313      24.69409217
W        6.37293851       6.37293851      27.41542722
W        7.96617313       7.96617313      29.00859960
W        6.37293851       6.37293851      30.60179670
W        7.96617313       7.96617313      32.19495838
W        6.37293851       6.37293851      33.78811788
W        7.96617313       7.96617313      35.38127500
W        6.37293851       6.37293851      36.97439598
W        7.96617313       7.96617313      38.56756249
W        6.37293851       6.37293851      40.16078064
W        7.96617313       7.96617313      41.75399571
W        6.37293851       6.37293851      43.34719393
W        7.96617313       7.96617313      44.94037595
W        6.37293851       6.37293851      46.53351745
W        7.96617313       7.96617313      48.12661957
W        6.37293851       6.37293851      49.71977318
W        7.96617313       7.96617313      51.31294679
288
Lattice="9.559407760912599 1.5551574685670926e-18 -1.2681778328733722e-17 1.5551574685670926e-18 9.559407760912599 -3.802032394954696e-17 -6.226046143134533e-17 -1.9250595450418562e-16 52.21208349090947" Properties=species:S:1:pos:R:3 vacuum_gap_Ang=1.2307692307692308 frame_index=12 pbc="T T T"
W       -0.00000000       0.00000000       0.79657260
W        1.59323463       1.59323463       2.38974621
W       -0.00000000       0.00000000       3.98289982
W        1.59323463       1.59323463       5.57600194
W        0.00000000       0.00000000       7.16914343
W        1.59323463       1.59323463       8.76232545
W       -0.00000000      -0.00000000      10.35552367
W        1.59323463       1.59323463      11.94873874
W        0.00000000      -0.00000000      13.54195690
W        1.59323463       1.59323463      15.13512341
W        0.00000000       0.00000000      16.72824439
W        1.59323463       1.59323463      18.32140151
W        0.00000000       0.00000000      19.91456100
W        1.59323463       1.59323463      21.50772269
W       -0.00000000      -0.00000000      23.10091978
W        1.59323463       1.59323463      24.69409217
W        0.00000000       0.00000000      27.51799132
W        1.59323463       1.59323463      29.11116371
W        0.00000000      -0.00000000      30.70436080
W        1.59323463       1.59323463      32.29752249
W        0.00000000       0.00000000      33.89068198
W        1.59323463       1.59323463      35.48383910
W        0.00000000      -0.00000000      37.07696009
W        1.59323463       1.59323463      38.67012659
W       -0.00000000      -0.00000000      40.26334475
W        1.59323463       1.59323463      41.85655982
W        0.00000000      -0.00000000      43.44975804
W        1.59323463       1.59323463      45.04294006
W        0.00000000      -0.00000000      46.63608155
W        1.59323463       1.59323463      48.22918367
W       -0.00000000      -0.00000000      49.82233728
W        1.59323463       1.59323463      51.41551089
W       -0.00000000       3.18646925       0.79657260
W        1.59323463       4.77970388       2.38974621
W       -0.00000000       3.18646925       3.98289982
W        1.59323463       4.77970388       5.57600194
W        0.00000000       3.18646925       7.16914343
W        1.59323463       4.77970388       8.76232545
W        0.00000000       3.18646925      10.35552367
W        1.59323463       4.77970388      11.94873874
W       -0.00000000       3.18646925      13.54195690
W        1.59323463       4.77970388      15.13512341
W       -0.00000000       3.18646925      16.72824439
W        1.59323463       4.77970388      18.32140151
W        0.00000000       3.18646925      19.91456100
W        1.59323463       4.77970388      21.50772269
W        0.00000000       3.18646925      23.10091978
W        1.59323463       4.77970388      24.69409217
W        0.00000000       3.18646925      27.51799132
W        1.59323463       4.77970388      29.11116371
W       -0.00000000       3.18646925      30.70436080
W        1.59323463       4.77970388      32.29752249
W        0.00000000       3.18646925      33.89068198
W        1.59323463       4.77970388      35.48383910
W        0.00000000       3.18646925      37.07696009
W        1.59323463       4.77970388      38.67012659
W        0.00000000       3.18646925      40.26334475
W        1.59323463       4.77970388      41.85655982
W        0.00000000       3.18646925      43.44975804
W        1.59323463       4.77970388      45.04294006
W        0.00000000       3.18646925      46.63608155
W        1.59323463       4.77970388      48.22918367
W        0.00000000       3.18646925      49.82233728
W        1.59323463       4.77970388      51.41551089
W        0.00000000       6.37293851       0.79657260
W        1.59323463       7.96617313       2.38974621
W       -0.00000000       6.37293851       3.98289982
W        1.59323463       7.96617313       5.57600194
W        0.00000000       6.37293851       7.16914343
W        1.59323463       7.96617313       8.76232545
W       -0.00000000       6.37293851      10.35552367
W        1.59323463       7.96617313      11.94873874
W        0.00000000       6.37293851      13.54195690
W        1.59323463       7.96617313      15.13512341
W       -0.00000000       6.37293851      16.72824439
W        1.59323463       7.96617313      18.32140151
W        0.00000000       6.37293851      19.91456100
W        1.59323463       7.96617313      21.50772269
W        0.00000000       6.37293851      23.10091978
W        1.59323463       7.96617313      24.69409217
W       -0.00000000       6.37293851      27.51799132
W        1.59323463       7.96617313      29.11116371
W        0.00000000       6.37293851      30.70436080
W        1.59323463       7.96617313      32.29752249
W       -0.00000000       6.37293851      33.89068198
W        1.59323463       7.96617313      35.48383910
W        0.00000000       6.37293851      37.07696009
W        1.59323463       7.96617313      38.67012659
W       -0.00000000       6.37293851      40.26334475
W        1.59323463       7.96617313      41.85655982
W        0.00000000       6.37293851      43.44975804
W        1.59323463       7.96617313      45.04294006
W       -0.00000000       6.37293851      46.63608155
W        1.59323463       7.96617313      48.22918367
W       -0.00000000       6.37293851      49.82233728
W        1.59323463       7.96617313      51.41551089
W        3.18646925      -0.00000000       0.79657260
W        4.77970388       1.59323463       2.38974621
W        3.18646925       0.00000000       3.98289982
W        4.77970388       1.59323463       5.57600194
W        3.18646925       0.00000000       7.16914343
W        4.77970388       1.59323463       8.76232545
W        3.18646925       0.00000000      10.35552367
W        4.77970388       1.59323463      11.94873874
W        3.18646925       0.00000000      13.54195690
W        4.77970388       1.59323463      15.13512341
W        3.18646925      -0.00000000      16.72824439
W        4.77970388       1.59323463      18.32140151
W        3.18646925      -0.00000000      19.91456100
W        4.77970388       1.59323463      21.50772269
W        3.18646925       0.00000000      23.10091978
W        4.77970388       1.59323463      24.69409217
W        3.18646925       0.00000000      27.51799132
W        4.77970388       1.59323463      29.11116371
W        3.18646925      -0.00000000      30.70436080
W        4.77970388       1.59323463      32.29752249
W        3.18646925       0.00000000      33.89068198
W        4.77970388       1.59323463      35.48383910
W        3.18646925      -0.00000000      37.07696009
W        4.77970388       1.59323463      38.67012659
W        3.18646925       0.00000000      40.26334475
W        4.77970388       1.59323463      41.85655982
W        3.18646925      -0.00000000      43.44975804
W        4.77970388       1.59323463      45.04294006
W        3.18646925       0.00000000      46.63608155
W        4.77970388       1.59323463      48.22918367
W        3.18646925       0.00000000      49.82233728
W        4.77970388       1.59323463      51.41551089
W        3.18646925       3.18646925       0.79657260
W        4.77970388       4.77970388       2.38974621
W        3.18646925       3.18646925       3.98289982
W        4.77970388       4.77970388       5.57600194
W        3.18646925       3.18646925       7.16914343
W        4.77970388       4.77970388       8.76232545
W        3.18646925       3.18646925      10.35552367
W        4.77970388       4.77970388      11.94873874
W        3.18646925       3.18646925      13.54195690
W        4.77970388       4.77970388      15.13512341
W        3.18646925       3.18646925      16.72824439
W        4.77970388       4.77970388      18.32140151
W        3.18646925       3.18646925      19.91456100
W        4.77970388       4.77970388      21.50772269
W        3.18646925       3.18646925      23.10091978
W        4.77970388       4.77970388      24.69409217
W        3.18646925       3.18646925      27.51799132
W        4.77970388       4.77970388      29.11116371
W        3.18646925       3.18646925      30.70436080
W        4.77970388       4.77970388      32.29752249
W        3.18646925       3.18646925      33.89068198
W        4.77970388       4.77970388      35.48383910
W        3.18646925       3.18646925      37.07696009
W        4.77970388       4.77970388      38.67012659
W        3.18646925       3.18646925      40.26334475
W        4.77970388       4.77970388      41.85655982
W        3.18646925       3.18646925      43.44975804
W        4.77970388       4.77970388      45.04294006
W        3.18646925       3.18646925      46.63608155
W        4.77970388       4.77970388      48.22918367
W        3.18646925       3.18646925      49.82233728
W        4.77970388       4.77970388      51.41551089
W        3.18646925       6.37293851       0.79657260
W        4.77970388       7.96617313       2.38974621
W        3.18646925       6.37293851       3.98289982
W        4.77970388       7.96617313       5.57600194
W        3.18646925       6.37293851       7.16914343
W        4.77970388       7.96617313       8.76232545
W        3.18646925       6.37293851      10.35552367
W        4.77970388       7.96617313      11.94873874
W        3.18646925       6.37293851      13.54195690
W        4.77970388       7.96617313      15.13512341
W        3.18646925       6.37293851      16.72824439
W        4.77970388       7.96617313      18.32140151
W        3.18646925       6.37293851      19.91456100
W        4.77970388       7.96617313      21.50772269
W        3.18646925       6.37293851      23.10091978
W        4.77970388       7.96617313      24.69409217
W        3.18646925       6.37293851      27.51799132
W        4.77970388       7.96617313      29.11116371
W        3.18646925       6.37293851      30.70436080
W        4.77970388       7.96617313      32.29752249
W        3.18646925       6.37293851      33.89068198
W        4.77970388       7.96617313      35.48383910
W        3.18646925       6.37293851      37.07696009
W        4.77970388       7.96617313      38.67012659
W        3.18646925       6.37293851      40.26334475
W        4.77970388       7.96617313      41.85655982
W        3.18646925       6.37293851      43.44975804
W        4.77970388       7.96617313      45.04294006
W        3.18646925       6.37293851      46.63608155
W        4.77970388       7.96617313      48.22918367
W        3.18646925       6.37293851      49.82233728
W        4.77970388       7.96617313      51.41551089
W        6.37293851       0.00000000       0.79657260
W        7.96617313       1.59323463       2.38974621
W        6.37293851       0.00000000       3.98289982
W        7.96617313       1.59323463       5.57600194
W        6.37293851       0.00000000       7.16914343
W        7.96617313       1.59323463       8.76232545
W        6.37293851      -0.00000000      10.35552367
W        7.96617313       1.59323463      11.94873874
W        6.37293851       0.00000000      13.54195690
W        7.96617313       1.59323463      15.13512341
W        6.37293851      -0.00000000      16.72824439
W        7.96617313       1.59323463      18.32140151
W        6.37293851      -0.00000000      19.91456100
W        7.96617313       1.59323463      21.50772269
W        6.37293851       0.00000000      23.10091978
W        7.96617313       1.59323463      24.69409217
W        6.37293851      -0.00000000      27.51799132
W        7.96617313       1.59323463      29.11116371
W        6.37293851       0.00000000      30.70436080
W        7.96617313       1.59323463      32.29752249
W        6.37293851      -0.00000000      33.89068198
W        7.96617313       1.59323463      35.48383910
W        6.37293851       0.00000000      37.07696009
W        7.96617313       1.59323463      38.67012659
W        6.37293851      -0.00000000      40.26334475
W        7.96617313       1.59323463      41.85655982
W        6.37293851      -0.00000000      43.44975804
W        7.96617313       1.59323463      45.04294006
W        6.37293851      -0.00000000      46.63608155
W        7.96617313       1.59323463      48.22918367
W        6.37293851       0.00000000      49.82233728
W        7.96617313       1.59323463      51.41551089
W        6.37293851       3.18646925       0.79657260
W        7.96617313       4.77970388       2.38974621
W        6.37293851       3.18646925       3.98289982
W        7.96617313       4.77970388       5.57600194
W        6.37293851       3.18646925       7.16914343
W        7.96617313       4.77970388       8.76232545
W        6.37293851       3.18646925      10.35552367
W        7.96617313       4.77970388      11.94873874
W        6.37293851       3.18646925      13.54195690
W        7.96617313       4.77970388      15.13512341
W        6.37293851       3.18646925      16.72824439
W        7.96617313       4.77970388      18.32140151
W        6.37293851       3.18646925      19.91456100
W        7.96617313       4.77970388      21.50772269
W        6.37293851       3.18646925      23.10091978
W        7.96617313       4.77970388      24.69409217
W        6.37293851       3.18646925      27.51799132
W        7.96617313       4.77970388      29.11116371
W        6.37293851       3.18646925      30.70436080
W        7.96617313       4.77970388      32.29752249
W        6.37293851       3.18646925      33.89068198
W        7.96617313       4.77970388      35.48383910
W        6.37293851       3.18646925      37.07696009
W        7.96617313       4.77970388      38.67012659
W        6.37293851       3.18646925      40.26334475
W        7.96617313       4.77970388      41.85655982
W        6.37293851       3.18646925      43.44975804
W        7.96617313       4.77970388      45.04294006
W        6.37293851       3.18646925      46.63608155
W        7.96617313       4.77970388      48.22918367
W        6.37293851       3.18646925      49.82233728
W        7.96617313       4.77970388      51.41551089
W        6.37293851       6.37293851       0.79657260
W        7.96617313       7.96617313       2.38974621
W        6.37293851       6.37293851       3.98289982
W        7.96617313       7.96617313       5.57600194
W        6.37293851       6.37293851       7.16914343
W        7.96617313       7.96617313       8.76232545
W        6.37293851       6.37293851      10.35552367
W        7.96617313       7.96617313      11.94873874
W        6.37293851       6.37293851      13.54195690
W        7.96617313       7.96617313      15.13512341
W        6.37293851       6.37293851      16.72824439
W        7.96617313       7.96617313      18.32140151
W        6.37293851       6.37293851      19.91456100
W        7.96617313       7.96617313      21.50772269
W        6.37293851       6.37293851      23.10091978
W        7.96617313       7.96617313      24.69409217
W        6.37293851       6.37293851      27.51799132
W        7.96617313       7.96617313      29.11116371
W        6.37293851       6.37293851      30.70436080
W        7.96617313       7.96617313      32.29752249
W        6.37293851       6.37293851      33.89068198
W        7.96617313       7.96617313      35.48383910
W        6.37293851       6.37293851      37.07696009
W        7.96617313       7.96617313      38.67012659
W        6.37293851       6.37293851      40.26334475
W        7.96617313       7.96617313      41.85655982
W        6.37293851       6.37293851      43.44975804
W        7.96617313       7.96617313      45.04294006
W        6.37293851       6.37293851      46.63608155
W        7.96617313       7.96617313      48.22918367
W        6.37293851       6.37293851      49.82233728
W        7.96617313       7.96617313      51.41551089
288
Lattice="9.559407760912599 1.5551574685670926e-18 -1.2681778328733722e-17 1.5551574685670926e-18 9.559407760912599 -3.802032394954696e-17 -6.226046143134533e-17 -1.9250595450418562e-16 52.31464759347357" Properties=species:S:1:pos:R:3 vacuum_gap_Ang=1.3333333333333333 frame_index=13 pbc="T T T"
W       -0.00000000       0.00000000       0.79657260
W        1.59323463       1.59323463       2.38974621
W       -0.00000000       0.00000000       3.98289982
W        1.59323463       1.59323463       5.57600194
W        0.00000000       0.00000000       7.16914343
W        1.59323463       1.59323463       8.76232545
W       -0.00000000      -0.00000000      10.35552367
W        1.59323463       1.59323463      11.94873874
W        0.00000000      -0.00000000      13.54195690
W        1.59323463       1.59323463      15.13512341
W        0.00000000       0.00000000      16.72824439
W        1.59323463       1.59323463      18.32140151
W        0.00000000       0.00000000      19.91456100
W        1.59323463       1.59323463      21.50772269
W       -0.00000000      -0.00000000      23.10091978
W        1.59323463       1.59323463      24.69409217
W        0.00000000       0.00000000      27.62055543
W        1.59323463       1.59323463      29.21372781
W        0.00000000      -0.00000000      30.80692490
W        1.59323463       1.59323463      32.40008659
W        0.00000000       0.00000000      33.99324608
W        1.59323463       1.59323463      35.58640321
W        0.00000000      -0.00000000      37.17952419
W        1.59323463       1.59323463      38.77269070
W       -0.00000000      -0.00000000      40.36590885
W        1.59323463       1.59323463      41.95912392
W        0.00000000      -0.00000000      43.55232214
W        1.59323463       1.59323463      45.14550416
W        0.00000000      -0.00000000      46.73864566
W        1.59323463       1.59323463      48.33174777
W       -0.00000000      -0.00000000      49.92490138
W        1.59323463       1.59323463      51.51807500
W       -0.00000000       3.18646925       0.79657260
W        1.59323463       4.77970388       2.38974621
W       -0.00000000       3.18646925       3.98289982
W        1.59323463       4.77970388       5.57600194
W        0.00000000       3.18646925       7.16914343
W        1.59323463       4.77970388       8.76232545
W        0.00000000       3.18646925      10.35552367
W        1.59323463       4.77970388      11.94873874
W       -0.00000000       3.18646925      13.54195690
W        1.59323463       4.77970388      15.13512341
W       -0.00000000       3.18646925      16.72824439
W        1.59323463       4.77970388      18.32140151
W        0.00000000       3.18646925      19.91456100
W        1.59323463       4.77970388      21.50772269
W        0.00000000       3.18646925      23.10091978
W        1.59323463       4.77970388      24.69409217
W        0.00000000       3.18646925      27.62055543
W        1.59323463       4.77970388      29.21372781
W       -0.00000000       3.18646925      30.80692490
W        1.59323463       4.77970388      32.40008659
W        0.00000000       3.18646925      33.99324608
W        1.59323463       4.77970388      35.58640321
W        0.00000000       3.18646925      37.17952419
W        1.59323463       4.77970388      38.77269070
W        0.00000000       3.18646925      40.36590885
W        1.59323463       4.77970388      41.95912392
W        0.00000000       3.18646925      43.55232214
W        1.59323463       4.77970388      45.14550416
W        0.00000000       3.18646925      46.73864566
W        1.59323463       4.77970388      48.33174777
W        0.00000000       3.18646925      49.92490138
W        1.59323463       4.77970388      51.51807500
W        0.00000000       6.37293851       0.79657260
W        1.59323463       7.96617313       2.38974621
W       -0.00000000       6.37293851       3.98289982
W        1.59323463       7.96617313       5.57600194
W        0.00000000       6.37293851       7.16914343
W        1.59323463       7.96617313       8.76232545
W       -0.00000000       6.37293851      10.35552367
W        1.59323463       7.96617313      11.94873874
W        0.00000000       6.37293851      13.54195690
W        1.59323463       7.96617313      15.13512341
W       -0.00000000       6.37293851      16.72824439
W        1.59323463       7.96617313      18.32140151
W        0.00000000       6.37293851      19.91456100
W        1.59323463       7.96617313      21.50772269
W        0.00000000       6.37293851      23.10091978
W        1.59323463       7.96617313      24.69409217
W       -0.00000000       6.37293851      27.62055543
W        1.59323463       7.96617313      29.21372781
W        0.00000000       6.37293851      30.80692490
W        1.59323463       7.96617313      32.40008659
W       -0.00000000       6.37293851      33.99324608
W        1.59323463       7.96617313      35.58640321
W        0.00000000       6.37293851      37.17952419
W        1.59323463       7.96617313      38.77269070
W       -0.00000000       6.37293851      40.36590885
W        1.59323463       7.96617313      41.95912392
W        0.00000000       6.37293851      43.55232214
W        1.59323463       7.96617313      45.14550416
W       -0.00000000       6.37293851      46.73864566
W        1.59323463       7.96617313      48.33174777
W       -0.00000000       6.37293851      49.92490138
W        1.59323463       7.96617313      51.51807500
W        3.18646925      -0.00000000       0.79657260
W        4.77970388       1.59323463       2.38974621
W        3.18646925       0.00000000       3.98289982
W        4.77970388       1.59323463       5.57600194
W        3.18646925       0.00000000       7.16914343
W        4.77970388       1.59323463       8.76232545
W        3.18646925       0.00000000      10.35552367
W        4.77970388       1.59323463      11.94873874
W        3.18646925       0.00000000      13.54195690
W        4.77970388       1.59323463      15.13512341
W        3.18646925      -0.00000000      16.72824439
W        4.77970388       1.59323463      18.32140151
W        3.18646925      -0.00000000      19.91456100
W        4.77970388       1.59323463      21.50772269
W        3.18646925       0.00000000      23.10091978
W        4.77970388       1.59323463      24.69409217
W        3.18646925       0.00000000      27.62055543
W        4.77970388       1.59323463      29.21372781
W        3.18646925      -0.00000000      30.80692490
W        4.77970388       1.59323463      32.40008659
W        3.18646925       0.00000000      33.99324608
W        4.77970388       1.59323463      35.58640321
W        3.18646925      -0.00000000      37.17952419
W        4.77970388       1.59323463      38.77269070
W        3.18646925       0.00000000      40.36590885
W        4.77970388       1.59323463      41.95912392
W        3.18646925      -0.00000000      43.55232214
W        4.77970388       1.59323463      45.14550416
W        3.18646925       0.00000000      46.73864566
W        4.77970388       1.59323463      48.33174777
W        3.18646925       0.00000000      49.92490138
W        4.77970388       1.59323463      51.51807500
W        3.18646925       3.18646925       0.79657260
W        4.77970388       4.77970388       2.38974621
W        3.18646925       3.18646925       3.98289982
W        4.77970388       4.77970388       5.57600194
W        3.18646925       3.18646925       7.16914343
W        4.77970388       4.77970388       8.76232545
W        3.18646925       3.18646925      10.35552367
W        4.77970388       4.77970388      11.94873874
W        3.18646925       3.18646925      13.54195690
W        4.77970388       4.77970388      15.13512341
W        3.18646925       3.18646925      16.72824439
W        4.77970388       4.77970388      18.32140151
W        3.18646925       3.18646925      19.91456100
W        4.77970388       4.77970388      21.50772269
W        3.18646925       3.18646925      23.10091978
W        4.77970388       4.77970388      24.69409217
W        3.18646925       3.18646925      27.62055543
W        4.77970388       4.77970388      29.21372781
W        3.18646925       3.18646925      30.80692490
W        4.77970388       4.77970388      32.40008659
W        3.18646925       3.18646925      33.99324608
W        4.77970388       4.77970388      35.58640321
W        3.18646925       3.18646925      37.17952419
W        4.77970388       4.77970388      38.77269070
W        3.18646925       3.18646925      40.36590885
W        4.77970388       4.77970388      41.95912392
W        3.18646925       3.18646925      43.55232214
W        4.77970388       4.77970388      45.14550416
W        3.18646925       3.18646925      46.73864566
W        4.77970388       4.77970388      48.33174777
W        3.18646925       3.18646925      49.92490138
W        4.77970388       4.77970388      51.51807500
W        3.18646925       6.37293851       0.79657260
W        4.77970388       7.96617313       2.38974621
W        3.18646925       6.37293851       3.98289982
W        4.77970388       7.96617313       5.57600194
W        3.18646925       6.37293851       7.16914343
W        4.77970388       7.96617313       8.76232545
W        3.18646925       6.37293851      10.35552367
W        4.77970388       7.96617313      11.94873874
W        3.18646925       6.37293851      13.54195690
W        4.77970388       7.96617313      15.13512341
W        3.18646925       6.37293851      16.72824439
W        4.77970388       7.96617313      18.32140151
W        3.18646925       6.37293851      19.91456100
W        4.77970388       7.96617313      21.50772269
W        3.18646925       6.37293851      23.10091978
W        4.77970388       7.96617313      24.69409217
W        3.18646925       6.37293851      27.62055543
W        4.77970388       7.96617313      29.21372781
W        3.18646925       6.37293851      30.80692490
W        4.77970388       7.96617313      32.40008659
W        3.18646925       6.37293851      33.99324608
W        4.77970388       7.96617313      35.58640321
W        3.18646925       6.37293851      37.17952419
W        4.77970388       7.96617313      38.77269070
W        3.18646925       6.37293851      40.36590885
W        4.77970388       7.96617313      41.95912392
W        3.18646925       6.37293851      43.55232214
W        4.77970388       7.96617313      45.14550416
W        3.18646925       6.37293851      46.73864566
W        4.77970388       7.96617313      48.33174777
W        3.18646925       6.37293851      49.92490138
W        4.77970388       7.96617313      51.51807500
W        6.37293851       0.00000000       0.79657260
W        7.96617313       1.59323463       2.38974621
W        6.37293851       0.00000000       3.98289982
W        7.96617313       1.59323463       5.57600194
W        6.37293851       0.00000000       7.16914343
W        7.96617313       1.59323463       8.76232545
W        6.37293851      -0.00000000      10.35552367
W        7.96617313       1.59323463      11.94873874
W        6.37293851       0.00000000      13.54195690
W        7.96617313       1.59323463      15.13512341
W        6.37293851      -0.00000000      16.72824439
W        7.96617313       1.59323463      18.32140151
W        6.37293851      -0.00000000      19.91456100
W        7.96617313       1.59323463      21.50772269
W        6.37293851       0.00000000      23.10091978
W        7.96617313       1.59323463      24.69409217
W        6.37293851      -0.00000000      27.62055543
W        7.96617313       1.59323463      29.21372781
W        6.37293851       0.00000000      30.80692490
W        7.96617313       1.59323463      32.40008659
W        6.37293851      -0.00000000      33.99324608
W        7.96617313       1.59323463      35.58640321
W        6.37293851       0.00000000      37.17952419
W        7.96617313       1.59323463      38.77269070
W        6.37293851      -0.00000000      40.36590885
W        7.96617313       1.59323463      41.95912392
W        6.37293851      -0.00000000      43.55232214
W        7.96617313       1.59323463      45.14550416
W        6.37293851      -0.00000000      46.73864566
W        7.96617313       1.59323463      48.33174777
W        6.37293851       0.00000000      49.92490138
W        7.96617313       1.59323463      51.51807500
W        6.37293851       3.18646925       0.79657260
W        7.96617313       4.77970388       2.38974621
W        6.37293851       3.18646925       3.98289982
W        7.96617313       4.77970388       5.57600194
W        6.37293851       3.18646925       7.16914343
W        7.96617313       4.77970388       8.76232545
W        6.37293851       3.18646925      10.35552367
W        7.96617313       4.77970388      11.94873874
W        6.37293851       3.18646925      13.54195690
W        7.96617313       4.77970388      15.13512341
W        6.37293851       3.18646925      16.72824439
W        7.96617313       4.77970388      18.32140151
W        6.37293851       3.18646925      19.91456100
W        7.96617313       4.77970388      21.50772269
W        6.37293851       3.18646925      23.10091978
W        7.96617313       4.77970388      24.69409217
W        6.37293851       3.18646925      27.62055543
W        7.96617313       4.77970388      29.21372781
W        6.37293851       3.18646925      30.80692490
W        7.96617313       4.77970388      32.40008659
W        6.37293851       3.18646925      33.99324608
W        7.96617313       4.77970388      35.58640321
W        6.37293851       3.18646925      37.17952419
W        7.96617313       4.77970388      38.77269070
W        6.37293851       3.18646925      40.36590885
W        7.96617313       4.77970388      41.95912392
W        6.37293851       3.18646925      43.55232214
W        7.96617313       4.77970388      45.14550416
W        6.37293851       3.18646925      46.73864566
W        7.96617313       4.77970388      48.33174777
W        6.37293851       3.18646925      49.92490138
W        7.96617313       4.77970388      51.51807500
W        6.37293851       6.37293851       0.79657260
W        7.96617313       7.96617313       2.38974621
W        6.37293851       6.37293851       3.98289982
W        7.96617313       7.96617313       5.57600194
W        6.37293851       6.37293851       7.16914343
W        7.96617313       7.96617313       8.76232545
W        6.37293851       6.37293851      10.35552367
W        7.96617313       7.96617313      11.94873874
W        6.37293851       6.37293851      13.54195690
W        7.96617313       7.96617313      15.13512341
W        6.37293851       6.37293851      16.72824439
W        7.96617313       7.96617313      18.32140151
W        6.37293851       6.37293851      19.91456100
W        7.96617313       7.96617313      21.50772269
W        6.37293851       6.37293851      23.10091978
W        7.96617313       7.96617313      24.69409217
W        6.37293851       6.37293851      27.62055543
W        7.96617313       7.96617313      29.21372781
W        6.37293851       6.37293851      30.80692490
W        7.96617313       7.96617313      32.40008659
W        6.37293851       6.37293851      33.99324608
W        7.96617313       7.96617313      35.58640321
W        6.37293851       6.37293851      37.17952419
W        7.96617313       7.96617313      38.77269070
W        6.37293851       6.37293851      40.36590885
W        7.96617313       7.96617313      41.95912392
W        6.37293851       6.37293851      43.55232214
W        7.96617313       7.96617313      45.14550416
W        6.37293851       6.37293851      46.73864566
W        7.96617313       7.96617313      48.33174777
W        6.37293851       6.37293851      49.92490138
W        7.96617313       7.96617313      51.51807500
288
Lattice="9.559407760912599 1.5551574685670926e-18 -1.2681778328733722e-17 1.5551574685670926e-18 9.559407760912599 -3.802032394954696e-17 -6.226046143134533e-17 -1.9250595450418562e-16 52.417211696037675" Properties=species:S:1:pos:R:3 vacuum_gap_Ang=1.435897435897436 frame_index=14 pbc="T T T"
W       -0.00000000       0.00000000       0.79657260
W        1.59323463       1.59323463       2.38974621
W       -0.00000000       0.00000000       3.98289982
W        1.59323463       1.59323463       5.57600194
W        0.00000000       0.00000000       7.16914343
W        1.59323463       1.59323463       8.76232545
W       -0.00000000      -0.00000000      10.35552367
W        1.59323463       1.59323463      11.94873874
W        0.00000000      -0.00000000      13.54195690
W        1.59323463       1.59323463      15.13512341
W        0.00000000       0.00000000      16.72824439
W        1.59323463       1.59323463      18.32140151
W        0.00000000       0.00000000      19.91456100
W        1.59323463       1.59323463      21.50772269
W       -0.00000000      -0.00000000      23.10091978
W        1.59323463       1.59323463      24.69409217
W        0.00000000       0.00000000      27.72311953
W        1.59323463       1.59323463      29.31629191
W        0.00000000      -0.00000000      30.90948900
W        1.59323463       1.59323463      32.50265069
W        0.00000000       0.00000000      34.09581018
W        1.59323463       1.59323463      35.68896731
W        0.00000000      -0.00000000      37.28208829
W        1.59323463       1.59323463      38.87525480
W       -0.00000000      -0.00000000      40.46847295
W        1.59323463       1.59323463      42.06168802
W        0.00000000      -0.00000000      43.65488624
W        1.59323463       1.59323463      45.24806826
W        0.00000000      -0.00000000      46.84120976
W        1.59323463       1.59323463      48.43431188
W       -0.00000000      -0.00000000      50.02746548
W        1.59323463       1.59323463      51.62063910
W       -0.00000000       3.18646925       0.79657260
W        1.59323463       4.77970388       2.38974621
W       -0.00000000       3.18646925       3.98289982
W        1.59323463       4.77970388       5.57600194
W        0.00000000       3.18646925       7.16914343
W        1.59323463       4.77970388       8.76232545
W        0.00000000       3.18646925      10.35552367
W        1.59323463       4.77970388      11.94873874
W       -0.00000000       3.18646925      13.54195690
W        1.59323463       4.77970388      15.13512341
W       -0.00000000       3.18646925      16.72824439
W        1.59323463       4.77970388      18.32140151
W        0.00000000       3.18646925      19.91456100
W        1.59323463       4.77970388      21.50772269
W        0.00000000       3.18646925      23.10091978
W        1.59323463       4.77970388      24.69409217
W        0.00000000       3.18646925      27.72311953
W        1.59323463       4.77970388      29.31629191
W       -0.00000000       3.18646925      30.90948900
W        1.59323463       4.77970388      32.50265069
W        0.00000000       3.18646925      34.09581018
W        1.59323463       4.77970388      35.68896731
W        0.00000000       3.18646925      37.28208829
W        1.59323463       4.77970388      38.87525480
W        0.00000000       3.18646925      40.46847295
W        1.59323463       4.77970388      42.06168802
W        0.00000000       3.18646925      43.65488624
W        1.59323463       4.77970388      45.24806826
W        0.00000000       3.18646925      46.84120976
W        1.59323463       4.77970388      48.43431188
W        0.00000000       3.18646925      50.02746548
W        1.59323463       4.77970388      51.62063910
W        0.00000000       6.37293851       0.79657260
W        1.59323463       7.96617313       2.38974621
W       -0.00000000       6.37293851       3.98289982
W        1.59323463       7.96617313       5.57600194
W        0.00000000       6.37293851       7.16914343
W        1.59323463       7.96617313       8.76232545
W       -0.00000000       6.37293851      10.35552367
W        1.59323463       7.96617313      11.94873874
W        0.00000000       6.37293851      13.54195690
W        1.59323463       7.96617313      15.13512341
W       -0.00000000       6.37293851      16.72824439
W        1.59323463       7.96617313      18.32140151
W        0.00000000       6.37293851      19.91456100
W        1.59323463       7.96617313      21.50772269
W        0.00000000       6.37293851      23.10091978
W        1.59323463       7.96617313      24.69409217
W       -0.00000000       6.37293851      27.72311953
W        1.59323463       7.96617313      29.31629191
W        0.00000000       6.37293851      30.90948900
W        1.59323463       7.96617313      32.50265069
W       -0.00000000       6.37293851      34.09581018
W        1.59323463       7.96617313      35.68896731
W        0.00000000       6.37293851      37.28208829
W        1.59323463       7.96617313      38.87525480
W       -0.00000000       6.37293851      40.46847295
W        1.59323463       7.96617313      42.06168802
W        0.00000000       6.37293851      43.65488624
W        1.59323463       7.96617313      45.24806826
W       -0.00000000       6.37293851      46.84120976
W        1.59323463       7.96617313      48.43431188
W       -0.00000000       6.37293851      50.02746548
W        1.59323463       7.96617313      51.62063910
W        3.18646925      -0.00000000       0.79657260
W        4.77970388       1.59323463       2.38974621
W        3.18646925       0.00000000       3.98289982
W        4.77970388       1.59323463       5.57600194
W        3.18646925       0.00000000       7.16914343
W        4.77970388       1.59323463       8.76232545
W        3.18646925       0.00000000      10.35552367
W        4.77970388       1.59323463      11.94873874
W        3.18646925       0.00000000      13.54195690
W        4.77970388       1.59323463      15.13512341
W        3.18646925      -0.00000000      16.72824439
W        4.77970388       1.59323463      18.32140151
W        3.18646925      -0.00000000      19.91456100
W        4.77970388       1.59323463      21.50772269
W        3.18646925       0.00000000      23.10091978
W        4.77970388       1.59323463      24.69409217
W        3.18646925       0.00000000      27.72311953
W        4.77970388       1.59323463      29.31629191
W        3.18646925      -0.00000000      30.90948900
W        4.77970388       1.59323463      32.50265069
W        3.18646925       0.00000000      34.09581018
W        4.77970388       1.59323463      35.68896731
W        3.18646925      -0.00000000      37.28208829
W        4.77970388       1.59323463      38.87525480
W        3.18646925       0.00000000      40.46847295
W        4.77970388       1.59323463      42.06168802
W        3.18646925      -0.00000000      43.65488624
W        4.77970388       1.59323463      45.24806826
W        3.18646925       0.00000000      46.84120976
W        4.77970388       1.59323463      48.43431188
W        3.18646925       0.00000000      50.02746548
W        4.77970388       1.59323463      51.62063910
W        3.18646925       3.18646925       0.79657260
W        4.77970388       4.77970388       2.38974621
W        3.18646925       3.18646925       3.98289982
W        4.77970388       4.77970388       5.57600194
W        3.18646925       3.18646925       7.16914343
W        4.77970388       4.77970388       8.76232545
W        3.18646925       3.18646925      10.35552367
W        4.77970388       4.77970388      11.94873874
W        3.18646925       3.18646925      13.54195690
W        4.77970388       4.77970388      15.13512341
W        3.18646925       3.18646925      16.72824439
W        4.77970388       4.77970388      18.32140151
W        3.18646925       3.18646925      19.91456100
W        4.77970388       4.77970388      21.50772269
W        3.18646925       3.18646925      23.10091978
W        4.77970388       4.77970388      24.69409217
W        3.18646925       3.18646925      27.72311953
W        4.77970388       4.77970388      29.31629191
W        3.18646925       3.18646925      30.90948900
W        4.77970388       4.77970388      32.50265069
W        3.18646925       3.18646925      34.09581018
W        4.77970388       4.77970388      35.68896731
W        3.18646925       3.18646925      37.28208829
W        4.77970388       4.77970388      38.87525480
W        3.18646925       3.18646925      40.46847295
W        4.77970388       4.77970388      42.06168802
W        3.18646925       3.18646925      43.65488624
W        4.77970388       4.77970388      45.24806826
W        3.18646925       3.18646925      46.84120976
W        4.77970388       4.77970388      48.43431188
W        3.18646925       3.18646925      50.02746548
W        4.77970388       4.77970388      51.62063910
W        3.18646925       6.37293851       0.79657260
W        4.77970388       7.96617313       2.38974621
W        3.18646925       6.37293851       3.98289982
W        4.77970388       7.96617313       5.57600194
W        3.18646925       6.37293851       7.16914343
W        4.77970388       7.96617313       8.76232545
W        3.18646925       6.37293851      10.35552367
W        4.77970388       7.96617313      11.94873874
W        3.18646925       6.37293851      13.54195690
W        4.77970388       7.96617313      15.13512341
W        3.18646925       6.37293851      16.72824439
W        4.77970388       7.96617313      18.32140151
W        3.18646925       6.37293851      19.91456100
W        4.77970388       7.96617313      21.50772269
W        3.18646925       6.37293851      23.10091978
W        4.77970388       7.96617313      24.69409217
W        3.18646925       6.37293851      27.72311953
W        4.77970388       7.96617313      29.31629191
W        3.18646925       6.37293851      30.90948900
W        4.77970388       7.96617313      32.50265069
W        3.18646925       6.37293851      34.09581018
W        4.77970388       7.96617313      35.68896731
W        3.18646925       6.37293851      37.28208829
W        4.77970388       7.96617313      38.87525480
W        3.18646925       6.37293851      40.46847295
W        4.77970388       7.96617313      42.06168802
W        3.18646925       6.37293851      43.65488624
W        4.77970388       7.96617313      45.24806826
W        3.18646925       6.37293851      46.84120976
W        4.77970388       7.96617313      48.43431188
W        3.18646925       6.37293851      50.02746548
W        4.77970388       7.96617313      51.62063910
W        6.37293851       0.00000000       0.79657260
W        7.96617313       1.59323463       2.38974621
W        6.37293851       0.00000000       3.98289982
W        7.96617313       1.59323463       5.57600194
W        6.37293851       0.00000000       7.16914343
W        7.96617313       1.59323463       8.76232545
W        6.37293851      -0.00000000      10.35552367
W        7.96617313       1.59323463      11.94873874
W        6.37293851       0.00000000      13.54195690
W        7.96617313       1.59323463      15.13512341
W        6.37293851      -0.00000000      16.72824439
W        7.96617313       1.59323463      18.32140151
W        6.37293851      -0.00000000      19.91456100
W        7.96617313       1.59323463      21.50772269
W        6.37293851       0.00000000      23.10091978
W        7.96617313       1.59323463      24.69409217
W        6.37293851      -0.00000000      27.72311953
W        7.96617313       1.59323463      29.31629191
W        6.37293851       0.00000000      30.90948900
W        7.96617313       1.59323463      32.50265069
W        6.37293851      -0.00000000      34.09581018
W        7.96617313       1.59323463      35.68896731
W        6.37293851       0.00000000      37.28208829
W        7.96617313       1.59323463      38.87525480
W        6.37293851      -0.00000000      40.46847295
W        7.96617313       1.59323463      42.06168802
W        6.37293851      -0.00000000      43.65488624
W        7.96617313       1.59323463      45.24806826
W        6.37293851      -0.00000000      46.84120976
W        7.96617313       1.59323463      48.43431188
W        6.37293851       0.00000000      50.02746548
W        7.96617313       1.59323463      51.62063910
W        6.37293851       3.18646925       0.79657260
W        7.96617313       4.77970388       2.38974621
W        6.37293851       3.18646925       3.98289982
W        7.96617313       4.77970388       5.57600194
W        6.37293851       3.18646925       7.16914343
W        7.96617313       4.77970388       8.76232545
W        6.37293851       3.18646925      10.35552367
W        7.96617313       4.77970388      11.94873874
W        6.37293851       3.18646925      13.54195690
W        7.96617313       4.77970388      15.13512341
W        6.37293851       3.18646925      16.72824439
W        7.96617313       4.77970388      18.32140151
W        6.37293851       3.18646925      19.91456100
W        7.96617313       4.77970388      21.50772269
W        6.37293851       3.18646925      23.10091978
W        7.96617313       4.77970388      24.69409217
W        6.37293851       3.18646925      27.72311953
W        7.96617313       4.77970388      29.31629191
W        6.37293851       3.18646925      30.90948900
W        7.96617313       4.77970388      32.50265069
W        6.37293851       3.18646925      34.09581018
W        7.96617313       4.77970388      35.68896731
W        6.37293851       3.18646925      37.28208829
W        7.96617313       4.77970388      38.87525480
W        6.37293851       3.18646925      40.46847295
W        7.96617313       4.77970388      42.06168802
W        6.37293851       3.18646925      43.65488624
W        7.96617313       4.77970388      45.24806826
W        6.37293851       3.18646925      46.84120976
W        7.96617313       4.77970388      48.43431188
W        6.37293851       3.18646925      50.02746548
W        7.96617313       4.77970388      51.62063910
W        6.37293851       6.37293851       0.79657260
W        7.96617313       7.96617313       2.38974621
W        6.37293851       6.37293851       3.98289982
W        7.96617313       7.96617313       5.57600194
W        6.37293851       6.37293851       7.16914343
W        7.96617313       7.96617313       8.76232545
W        6.37293851       6.37293851      10.35552367
W        7.96617313       7.96617313      11.94873874
W        6.37293851       6.37293851      13.54195690
W        7.96617313       7.96617313      15.13512341
W        6.37293851       6.37293851      16.72824439
W        7.96617313       7.96617313      18.32140151
W        6.37293851       6.37293851      19.91456100
W        7.96617313       7.96617313      21.50772269
W        6.37293851       6.37293851      23.10091978
W        7.96617313       7.96617313      24.69409217
W        6.37293851       6.37293851      27.72311953
W        7.96617313       7.96617313      29.31629191
W        6.37293851       6.37293851      30.90948900
W        7.96617313       7.96617313      32.50265069
W        6.37293851       6.37293851      34.09581018
W        7.96617313       7.96617313      35.68896731
W        6.37293851       6.37293851      37.28208829
W        7.96617313       7.96617313      38.87525480
W        6.37293851       6.37293851      40.46847295
W        7.96617313       7.96617313      42.06168802
W        6.37293851       6.37293851      43.65488624
W        7.96617313       7.96617313      45.24806826
W        6.37293851       6.37293851      46.84120976
W        7.96617313       7.96617313      48.43431188
W        6.37293851       6.37293851      50.02746548
W        7.96617313       7.96617313      51.62063910
288
Lattice="9.559407760912599 1.5551574685670926e-18 -1.2681778328733722e-17 1.5551574685670926e-18 9.559407760912599 -3.802032394954696e-17 -6.226046143134533e-17 -1.9250595450418562e-16 52.51977579860178" Properties=species:S:1:pos:R:3 vacuum_gap_Ang=1.5384615384615383 frame_index=15 pbc="T T T"
W       -0.00000000       0.00000000       0.79657260
W        1.59323463       1.59323463       2.38974621
W       -0.00000000       0.00000000       3.98289982
W        1.59323463       1.59323463       5.57600194
W        0.00000000       0.00000000       7.16914343
W        1.59323463       1.59323463       8.76232545
W       -0.00000000      -0.00000000      10.35552367
W        1.59323463       1.59323463      11.94873874
W        0.00000000      -0.00000000      13.54195690
W        1.59323463       1.59323463      15.13512341
W        0.00000000       0.00000000      16.72824439
W        1.59323463       1.59323463      18.32140151
W        0.00000000       0.00000000      19.91456100
W        1.59323463       1.59323463      21.50772269
W       -0.00000000      -0.00000000      23.10091978
W        1.59323463       1.59323463      24.69409217
W        0.00000000       0.00000000      27.82568363
W        1.59323463       1.59323463      29.41885601
W        0.00000000      -0.00000000      31.01205311
W        1.59323463       1.59323463      32.60521479
W        0.00000000       0.00000000      34.19837429
W        1.59323463       1.59323463      35.79153141
W        0.00000000      -0.00000000      37.38465239
W        1.59323463       1.59323463      38.97781890
W       -0.00000000      -0.00000000      40.57103706
W        1.59323463       1.59323463      42.16425212
W        0.00000000      -0.00000000      43.75745034
W        1.59323463       1.59323463      45.35063236
W        0.00000000      -0.00000000      46.94377386
W        1.59323463       1.59323463      48.53687598
W       -0.00000000      -0.00000000      50.13002959
W        1.59323463       1.59323463      51.72320320
W       -0.00000000       3.18646925       0.79657260
W        1.59323463       4.77970388       2.38974621
W       -0.00000000       3.18646925       3.98289982
W        1.59323463       4.77970388       5.57600194
W        0.00000000       3.18646925       7.16914343
W        1.59323463       4.77970388       8.76232545
W        0.00000000       3.18646925      10.35552367
W        1.59323463       4.77970388      11.94873874
W       -0.00000000       3.18646925      13.54195690
W        1.59323463       4.77970388      15.13512341
W       -0.00000000       3.18646925      16.72824439
W        1.59323463       4.77970388      18.32140151
W        0.00000000       3.18646925      19.91456100
W        1.59323463       4.77970388      21.50772269
W        0.00000000       3.18646925      23.10091978
W        1.59323463       4.77970388      24.69409217
W        0.00000000       3.18646925      27.82568363
W        1.59323463       4.77970388      29.41885601
W       -0.00000000       3.18646925      31.01205311
W        1.59323463       4.77970388      32.60521479
W        0.00000000       3.18646925      34.19837429
W        1.59323463       4.77970388      35.79153141
W        0.00000000       3.18646925      37.38465239
W        1.59323463       4.77970388      38.97781890
W        0.00000000       3.18646925      40.57103706
W        1.59323463       4.77970388      42.16425212
W        0.00000000       3.18646925      43.75745034
W        1.59323463       4.77970388      45.35063236
W        0.00000000       3.18646925      46.94377386
W        1.59323463       4.77970388      48.53687598
W        0.00000000       3.18646925      50.13002959
W        1.59323463       4.77970388      51.72320320
W        0.00000000       6.37293851       0.79657260
W        1.59323463       7.96617313       2.38974621
W       -0.00000000       6.37293851       3.98289982
W        1.59323463       7.96617313       5.57600194
W        0.00000000       6.37293851       7.16914343
W        1.59323463       7.96617313       8.76232545
W       -0.00000000       6.37293851      10.35552367
W        1.59323463       7.96617313      11.94873874
W        0.00000000       6.37293851      13.54195690
W        1.59323463       7.96617313      15.13512341
W       -0.00000000       6.37293851      16.72824439
W        1.59323463       7.96617313      18.32140151
W        0.00000000       6.37293851      19.91456100
W        1.59323463       7.96617313      21.50772269
W        0.00000000       6.37293851      23.10091978
W        1.59323463       7.96617313      24.69409217
W       -0.00000000       6.37293851      27.82568363
W        1.59323463       7.96617313      29.41885601
W        0.00000000       6.37293851      31.01205311
W        1.59323463       7.96617313      32.60521479
W       -0.00000000       6.37293851      34.19837429
W        1.59323463       7.96617313      35.79153141
W        0.00000000       6.37293851      37.38465239
W        1.59323463       7.96617313      38.97781890
W       -0.00000000       6.37293851      40.57103706
W        1.59323463       7.96617313      42.16425212
W        0.00000000       6.37293851      43.75745034
W        1.59323463       7.96617313      45.35063236
W       -0.00000000       6.37293851      46.94377386
W        1.59323463       7.96617313      48.53687598
W       -0.00000000       6.37293851      50.13002959
W        1.59323463       7.96617313      51.72320320
W        3.18646925      -0.00000000       0.79657260
W        4.77970388       1.59323463       2.38974621
W        3.18646925       0.00000000       3.98289982
W        4.77970388       1.59323463       5.57600194
W        3.18646925       0.00000000       7.16914343
W        4.77970388       1.59323463       8.76232545
W        3.18646925       0.00000000      10.35552367
W        4.77970388       1.59323463      11.94873874
W        3.18646925       0.00000000      13.54195690
W        4.77970388       1.59323463      15.13512341
W        3.18646925      -0.00000000      16.72824439
W        4.77970388       1.59323463      18.32140151
W        3.18646925      -0.00000000      19.91456100
W        4.77970388       1.59323463      21.50772269
W        3.18646925       0.00000000      23.10091978
W        4.77970388       1.59323463      24.69409217
W        3.18646925       0.00000000      27.82568363
W        4.77970388       1.59323463      29.41885601
W        3.18646925      -0.00000000      31.01205311
W        4.77970388       1.59323463      32.60521479
W        3.18646925       0.00000000      34.19837429
W        4.77970388       1.59323463      35.79153141
W        3.18646925      -0.00000000      37.38465239
W        4.77970388       1.59323463      38.97781890
W        3.18646925       0.00000000      40.57103706
W        4.77970388       1.59323463      42.16425212
W        3.18646925      -0.00000000      43.75745034
W        4.77970388       1.59323463      45.35063236
W        3.18646925       0.00000000      46.94377386
W        4.77970388       1.59323463      48.53687598
W        3.18646925       0.00000000      50.13002959
W        4.77970388       1.59323463      51.72320320
W        3.18646925       3.18646925       0.79657260
W        4.77970388       4.77970388       2.38974621
W        3.18646925       3.18646925       3.98289982
W        4.77970388       4.77970388       5.57600194
W        3.18646925       3.18646925       7.16914343
W        4.77970388       4.77970388       8.76232545
W        3.18646925       3.18646925      10.35552367
W        4.77970388       4.77970388      11.94873874
W        3.18646925       3.18646925      13.54195690
W        4.77970388       4.77970388      15.13512341
W        3.18646925       3.18646925      16.72824439
W        4.77970388       4.77970388      18.32140151
W        3.18646925       3.18646925      19.91456100
W        4.77970388       4.77970388      21.50772269
W        3.18646925       3.18646925      23.10091978
W        4.77970388       4.77970388      24.69409217
W        3.18646925       3.18646925      27.82568363
W        4.77970388       4.77970388      29.41885601
W        3.18646925       3.18646925      31.01205311
W        4.77970388       4.77970388      32.60521479
W        3.18646925       3.18646925      34.19837429
W        4.77970388       4.77970388      35.79153141
W        3.18646925       3.18646925      37.38465239
W        4.77970388       4.77970388      38.97781890
W        3.18646925       3.18646925      40.57103706
W        4.77970388       4.77970388      42.16425212
W        3.18646925       3.18646925      43.75745034
W        4.77970388       4.77970388      45.35063236
W        3.18646925       3.18646925      46.94377386
W        4.77970388       4.77970388      48.53687598
W        3.18646925       3.18646925      50.13002959
W        4.77970388       4.77970388      51.72320320
W        3.18646925       6.37293851       0.79657260
W        4.77970388       7.96617313       2.38974621
W        3.18646925       6.37293851       3.98289982
W        4.77970388       7.96617313       5.57600194
W        3.18646925       6.37293851       7.16914343
W        4.77970388       7.96617313       8.76232545
W        3.18646925       6.37293851      10.35552367
W        4.77970388       7.96617313      11.94873874
W        3.18646925       6.37293851      13.54195690
W        4.77970388       7.96617313      15.13512341
W        3.18646925       6.37293851      16.72824439
W        4.77970388       7.96617313      18.32140151
W        3.18646925       6.37293851      19.91456100
W        4.77970388       7.96617313      21.50772269
W        3.18646925       6.37293851      23.10091978
W        4.77970388       7.96617313      24.69409217
W        3.18646925       6.37293851      27.82568363
W        4.77970388       7.96617313      29.41885601
W        3.18646925       6.37293851      31.01205311
W        4.77970388       7.96617313      32.60521479
W        3.18646925       6.37293851      34.19837429
W        4.77970388       7.96617313      35.79153141
W        3.18646925       6.37293851      37.38465239
W        4.77970388       7.96617313      38.97781890
W        3.18646925       6.37293851      40.57103706
W        4.77970388       7.96617313      42.16425212
W        3.18646925       6.37293851      43.75745034
W        4.77970388       7.96617313      45.35063236
W        3.18646925       6.37293851      46.94377386
W        4.77970388       7.96617313      48.53687598
W        3.18646925       6.37293851      50.13002959
W        4.77970388       7.96617313      51.72320320
W        6.37293851       0.00000000       0.79657260
W        7.96617313       1.59323463       2.38974621
W        6.37293851       0.00000000       3.98289982
W        7.96617313       1.59323463       5.57600194
W        6.37293851       0.00000000       7.16914343
W        7.96617313       1.59323463       8.76232545
W        6.37293851      -0.00000000      10.35552367
W        7.96617313       1.59323463      11.94873874
W        6.37293851       0.00000000      13.54195690
W        7.96617313       1.59323463      15.13512341
W        6.37293851      -0.00000000      16.72824439
W        7.96617313       1.59323463      18.32140151
W        6.37293851      -0.00000000      19.91456100
W        7.96617313       1.59323463      21.50772269
W        6.37293851       0.00000000      23.10091978
W        7.96617313       1.59323463      24.69409217
W        6.37293851      -0.00000000      27.82568363
W        7.96617313       1.59323463      29.41885601
W        6.37293851       0.00000000      31.01205311
W        7.96617313       1.59323463      32.60521479
W        6.37293851      -0.00000000      34.19837429
W        7.96617313       1.59323463      35.79153141
W        6.37293851       0.00000000      37.38465239
W        7.96617313       1.59323463      38.97781890
W        6.37293851      -0.00000000      40.57103706
W        7.96617313       1.59323463      42.16425212
W        6.37293851      -0.00000000      43.75745034
W        7.96617313       1.59323463      45.35063236
W        6.37293851      -0.00000000      46.94377386
W        7.96617313       1.59323463      48.53687598
W        6.37293851       0.00000000      50.13002959
W        7.96617313       1.59323463      51.72320320
W        6.37293851       3.18646925       0.79657260
W        7.96617313       4.77970388       2.38974621
W        6.37293851       3.18646925       3.98289982
W        7.96617313       4.77970388       5.57600194
W        6.37293851       3.18646925       7.16914343
W        7.96617313       4.77970388       8.76232545
W        6.37293851       3.18646925      10.35552367
W        7.96617313       4.77970388      11.94873874
W        6.37293851       3.18646925      13.54195690
W        7.96617313       4.77970388      15.13512341
W        6.37293851       3.18646925      16.72824439
W        7.96617313       4.77970388      18.32140151
W        6.37293851       3.18646925      19.91456100
W        7.96617313       4.77970388      21.50772269
W        6.37293851       3.18646925      23.10091978
W        7.96617313       4.77970388      24.69409217
W        6.37293851       3.18646925      27.82568363
W        7.96617313       4.77970388      29.41885601
W        6.37293851       3.18646925      31.01205311
W        7.96617313       4.77970388      32.60521479
W        6.37293851       3.18646925      34.19837429
W        7.96617313       4.77970388      35.79153141
W        6.37293851       3.18646925      37.38465239
W        7.96617313       4.77970388      38.97781890
W        6.37293851       3.18646925      40.57103706
W        7.96617313       4.77970388      42.16425212
W        6.37293851       3.18646925      43.75745034
W        7.96617313       4.77970388      45.35063236
W        6.37293851       3.18646925      46.94377386
W        7.96617313       4.77970388      48.53687598
W        6.37293851       3.18646925      50.13002959
W        7.96617313       4.77970388      51.72320320
W        6.37293851       6.37293851       0.79657260
W        7.96617313       7.96617313       2.38974621
W        6.37293851       6.37293851       3.98289982
W        7.96617313       7.96617313       5.57600194
W        6.37293851       6.37293851       7.16914343
W        7.96617313       7.96617313       8.76232545
W        6.37293851       6.37293851      10.35552367
W        7.96617313       7.96617313      11.94873874
W        6.37293851       6.37293851      13.54195690
W        7.96617313       7.96617313      15.13512341
W        6.37293851       6.37293851      16.72824439
W        7.96617313       7.96617313      18.32140151
W        6.37293851       6.37293851      19.91456100
W        7.96617313       7.96617313      21.50772269
W        6.37293851       6.37293851      23.10091978
W        7.96617313       7.96617313      24.69409217
W        6.37293851       6.37293851      27.82568363
W        7.96617313       7.96617313      29.41885601
W        6.37293851       6.37293851      31.01205311
W        7.96617313       7.96617313      32.60521479
W        6.37293851       6.37293851      34.19837429
W        7.96617313       7.96617313      35.79153141
W        6.37293851       6.37293851      37.38465239
W        7.96617313       7.96617313      38.97781890
W        6.37293851       6.37293851      40.57103706
W        7.96617313       7.96617313      42.16425212
W        6.37293851       6.37293851      43.75745034
W        7.96617313       7.96617313      45.35063236
W        6.37293851       6.37293851      46.94377386
W        7.96617313       7.96617313      48.53687598
W        6.37293851       6.37293851      50.13002959
W        7.96617313       7.96617313      51.72320320
288
Lattice="9.559407760912599 1.5551574685670926e-18 -1.2681778328733722e-17 1.5551574685670926e-18 9.559407760912599 -3.802032394954696e-17 -6.226046143134533e-17 -1.9250595450418562e-16 52.62233990116588" Properties=species:S:1:pos:R:3 vacuum_gap_Ang=1.641025641025641 frame_index=16 pbc="T T T"
W       -0.00000000       0.00000000       0.79657260
W        1.59323463       1.59323463       2.38974621
W       -0.00000000       0.00000000       3.98289982
W        1.59323463       1.59323463       5.57600194
W        0.00000000       0.00000000       7.16914343
W        1.59323463       1.59323463       8.76232545
W       -0.00000000      -0.00000000      10.35552367
W        1.59323463       1.59323463      11.94873874
W        0.00000000      -0.00000000      13.54195690
W        1.59323463       1.59323463      15.13512341
W        0.00000000       0.00000000      16.72824439
W        1.59323463       1.59323463      18.32140151
W        0.00000000       0.00000000      19.91456100
W        1.59323463       1.59323463      21.50772269
W       -0.00000000      -0.00000000      23.10091978
W        1.59323463       1.59323463      24.69409217
W        0.00000000       0.00000000      27.92824773
W        1.59323463       1.59323463      29.52142012
W        0.00000000      -0.00000000      31.11461721
W        1.59323463       1.59323463      32.70777890
W        0.00000000       0.00000000      34.30093839
W        1.59323463       1.59323463      35.89409551
W        0.00000000      -0.00000000      37.48721650
W        1.59323463       1.59323463      39.08038300
W       -0.00000000      -0.00000000      40.67360116
W        1.59323463       1.59323463      42.26681623
W        0.00000000      -0.00000000      43.86001445
W        1.59323463       1.59323463      45.45319647
W        0.00000000      -0.00000000      47.04633796
W        1.59323463       1.59323463      48.63944008
W       -0.00000000      -0.00000000      50.23259369
W        1.59323463       1.59323463      51.82576730
W       -0.00000000       3.18646925       0.79657260
W        1.59323463       4.77970388       2.38974621
W       -0.00000000       3.18646925       3.98289982
W        1.59323463       4.77970388       5.57600194
W        0.00000000       3.18646925       7.16914343
W        1.59323463       4.77970388       8.76232545
W        0.00000000       3.18646925      10.35552367
W        1.59323463       4.77970388      11.94873874
W       -0.00000000       3.18646925      13.54195690
W        1.59323463       4.77970388      15.13512341
W       -0.00000000       3.18646925      16.72824439
W        1.59323463       4.77970388      18.32140151
W        0.00000000       3.18646925      19.91456100
W        1.59323463       4.77970388      21.50772269
W        0.00000000       3.18646925      23.10091978
W        1.59323463       4.77970388      24.69409217
W        0.00000000       3.18646925      27.92824773
W        1.59323463       4.77970388      29.52142012
W       -0.00000000       3.18646925      31.11461721
W        1.59323463       4.77970388      32.70777890
W        0.00000000       3.18646925      34.30093839
W        1.59323463       4.77970388      35.89409551
W        0.00000000       3.18646925      37.48721650
W        1.59323463       4.77970388      39.08038300
W        0.00000000       3.18646925      40.67360116
W        1.59323463       4.77970388      42.26681623
W        0.00000000       3.18646925      43.86001445
W        1.59323463       4.77970388      45.45319647
W        0.00000000       3.18646925      47.04633796
W        1.59323463       4.77970388      48.63944008
W        0.00000000       3.18646925      50.23259369
W        1.59323463       4.77970388      51.82576730
W        0.00000000       6.37293851       0.79657260
W        1.59323463       7.96617313       2.38974621
W       -0.00000000       6.37293851       3.98289982
W        1.59323463       7.96617313       5.57600194
W        0.00000000       6.37293851       7.16914343
W        1.59323463       7.96617313       8.76232545
W       -0.00000000       6.37293851      10.35552367
W        1.59323463       7.96617313      11.94873874
W        0.00000000       6.37293851      13.54195690
W        1.59323463       7.96617313      15.13512341
W       -0.00000000       6.37293851      16.72824439
W        1.59323463       7.96617313      18.32140151
W        0.00000000       6.37293851      19.91456100
W        1.59323463       7.96617313      21.50772269
W        0.00000000       6.37293851      23.10091978
W        1.59323463       7.96617313      24.69409217
W       -0.00000000       6.37293851      27.92824773
W        1.59323463       7.96617313      29.52142012
W        0.00000000       6.37293851      31.11461721
W        1.59323463       7.96617313      32.70777890
W       -0.00000000       6.37293851      34.30093839
W        1.59323463       7.96617313      35.89409551
W        0.00000000       6.37293851      37.48721650
W        1.59323463       7.96617313      39.08038300
W       -0.00000000       6.37293851      40.67360116
W        1.59323463       7.96617313      42.26681623
W        0.00000000       6.37293851      43.86001445
W        1.59323463       7.96617313      45.45319647
W       -0.00000000       6.37293851      47.04633796
W        1.59323463       7.96617313      48.63944008
W       -0.00000000       6.37293851      50.23259369
W        1.59323463       7.96617313      51.82576730
W        3.18646925      -0.00000000       0.79657260
W        4.77970388       1.59323463       2.38974621
W        3.18646925       0.00000000       3.98289982
W        4.77970388       1.59323463       5.57600194
W        3.18646925       0.00000000       7.16914343
W        4.77970388       1.59323463       8.76232545
W        3.18646925       0.00000000      10.35552367
W        4.77970388       1.59323463      11.94873874
W        3.18646925       0.00000000      13.54195690
W        4.77970388       1.59323463      15.13512341
W        3.18646925      -0.00000000      16.72824439
W        4.77970388       1.59323463      18.32140151
W        3.18646925      -0.00000000      19.91456100
W        4.77970388       1.59323463      21.50772269
W        3.18646925       0.00000000      23.10091978
W        4.77970388       1.59323463      24.69409217
W        3.18646925       0.00000000      27.92824773
W        4.77970388       1.59323463      29.52142012
W        3.18646925      -0.00000000      31.11461721
W        4.77970388       1.59323463      32.70777890
W        3.18646925       0.00000000      34.30093839
W        4.77970388       1.59323463      35.89409551
W        3.18646925      -0.00000000      37.48721650
W        4.77970388       1.59323463      39.08038300
W        3.18646925       0.00000000      40.67360116
W        4.77970388       1.59323463      42.26681623
W        3.18646925      -0.00000000      43.86001445
W        4.77970388       1.59323463      45.45319647
W        3.18646925       0.00000000      47.04633796
W        4.77970388       1.59323463      48.63944008
W        3.18646925       0.00000000      50.23259369
W        4.77970388       1.59323463      51.82576730
W        3.18646925       3.18646925       0.79657260
W        4.77970388       4.77970388       2.38974621
W        3.18646925       3.18646925       3.98289982
W        4.77970388       4.77970388       5.57600194
W        3.18646925       3.18646925       7.16914343
W        4.77970388       4.77970388       8.76232545
W        3.18646925       3.18646925      10.35552367
W        4.77970388       4.77970388      11.94873874
W        3.18646925       3.18646925      13.54195690
W        4.77970388       4.77970388      15.13512341
W        3.18646925       3.18646925      16.72824439
W        4.77970388       4.77970388      18.32140151
W        3.18646925       3.18646925      19.91456100
W        4.77970388       4.77970388      21.50772269
W        3.18646925       3.18646925      23.10091978
W        4.77970388       4.77970388      24.69409217
W        3.18646925       3.18646925      27.92824773
W        4.77970388       4.77970388      29.52142012
W        3.18646925       3.18646925      31.11461721
W        4.77970388       4.77970388      32.70777890
W        3.18646925       3.18646925      34.30093839
W        4.77970388       4.77970388      35.89409551
W        3.18646925       3.18646925      37.48721650
W        4.77970388       4.77970388      39.08038300
W        3.18646925       3.18646925      40.67360116
W        4.77970388       4.77970388      42.26681623
W        3.18646925       3.18646925      43.86001445
W        4.77970388       4.77970388      45.45319647
W        3.18646925       3.18646925      47.04633796
W        4.77970388       4.77970388      48.63944008
W        3.18646925       3.18646925      50.23259369
W        4.77970388       4.77970388      51.82576730
W        3.18646925       6.37293851       0.79657260
W        4.77970388       7.96617313       2.38974621
W        3.18646925       6.37293851       3.98289982
W        4.77970388       7.96617313       5.57600194
W        3.18646925       6.37293851       7.16914343
W        4.77970388       7.96617313       8.76232545
W        3.18646925       6.37293851      10.35552367
W        4.77970388       7.96617313      11.94873874
W        3.18646925       6.37293851      13.54195690
W        4.77970388       7.96617313      15.13512341
W        3.18646925       6.37293851      16.72824439
W        4.77970388       7.96617313      18.32140151
W        3.18646925       6.37293851      19.91456100
W        4.77970388       7.96617313      21.50772269
W        3.18646925       6.37293851      23.10091978
W        4.77970388       7.96617313      24.69409217
W        3.18646925       6.37293851      27.92824773
W        4.77970388       7.96617313      29.52142012
W        3.18646925       6.37293851      31.11461721
W        4.77970388       7.96617313      32.70777890
W        3.18646925       6.37293851      34.30093839
W        4.77970388       7.96617313      35.89409551
W        3.18646925       6.37293851      37.48721650
W        4.77970388       7.96617313      39.08038300
W        3.18646925       6.37293851      40.67360116
W        4.77970388       7.96617313      42.26681623
W        3.18646925       6.37293851      43.86001445
W        4.77970388       7.96617313      45.45319647
W        3.18646925       6.37293851      47.04633796
W        4.77970388       7.96617313      48.63944008
W        3.18646925       6.37293851      50.23259369
W        4.77970388       7.96617313      51.82576730
W        6.37293851       0.00000000       0.79657260
W        7.96617313       1.59323463       2.38974621
W        6.37293851       0.00000000       3.98289982
W        7.96617313       1.59323463       5.57600194
W        6.37293851       0.00000000       7.16914343
W        7.96617313       1.59323463       8.76232545
W        6.37293851      -0.00000000      10.35552367
W        7.96617313       1.59323463      11.94873874
W        6.37293851       0.00000000      13.54195690
W        7.96617313       1.59323463      15.13512341
W        6.37293851      -0.00000000      16.72824439
W        7.96617313       1.59323463      18.32140151
W        6.37293851      -0.00000000      19.91456100
W        7.96617313       1.59323463      21.50772269
W        6.37293851       0.00000000      23.10091978
W        7.96617313       1.59323463      24.69409217
W        6.37293851      -0.00000000      27.92824773
W        7.96617313       1.59323463      29.52142012
W        6.37293851       0.00000000      31.11461721
W        7.96617313       1.59323463      32.70777890
W        6.37293851      -0.00000000      34.30093839
W        7.96617313       1.59323463      35.89409551
W        6.37293851       0.00000000      37.48721650
W        7.96617313       1.59323463      39.08038300
W        6.37293851      -0.00000000      40.67360116
W        7.96617313       1.59323463      42.26681623
W        6.37293851      -0.00000000      43.86001445
W        7.96617313       1.59323463      45.45319647
W        6.37293851      -0.00000000      47.04633796
W        7.96617313       1.59323463      48.63944008
W        6.37293851       0.00000000      50.23259369
W        7.96617313       1.59323463      51.82576730
W        6.37293851       3.18646925       0.79657260
W        7.96617313       4.77970388       2.38974621
W        6.37293851       3.18646925       3.98289982
W        7.96617313       4.77970388       5.57600194
W        6.37293851       3.18646925       7.16914343
W        7.96617313       4.77970388       8.76232545
W        6.37293851       3.18646925      10.35552367
W        7.96617313       4.77970388      11.94873874
W        6.37293851       3.18646925      13.54195690
W        7.96617313       4.77970388      15.13512341
W        6.37293851       3.18646925      16.72824439
W        7.96617313       4.77970388      18.32140151
W        6.37293851       3.18646925      19.91456100
W        7.96617313       4.77970388      21.50772269
W        6.37293851       3.18646925      23.10091978
W        7.96617313       4.77970388      24.69409217
W        6.37293851       3.18646925      27.92824773
W        7.96617313       4.77970388      29.52142012
W        6.37293851       3.18646925      31.11461721
W        7.96617313       4.77970388      32.70777890
W        6.37293851       3.18646925      34.30093839
W        7.96617313       4.77970388      35.89409551
W        6.37293851       3.18646925      37.48721650
W        7.96617313       4.77970388      39.08038300
W        6.37293851       3.18646925      40.67360116
W        7.96617313       4.77970388      42.26681623
W        6.37293851       3.18646925      43.86001445
W        7.96617313       4.77970388      45.45319647
W        6.37293851       3.18646925      47.04633796
W        7.96617313       4.77970388      48.63944008
W        6.37293851       3.18646925      50.23259369
W        7.96617313       4.77970388      51.82576730
W        6.37293851       6.37293851       0.79657260
W        7.96617313       7.96617313       2.38974621
W        6.37293851       6.37293851       3.98289982
W        7.96617313       7.96617313       5.57600194
W        6.37293851       6.37293851       7.16914343
W        7.96617313       7.96617313       8.76232545
W        6.37293851       6.37293851      10.35552367
W        7.96617313       7.96617313      11.94873874
W        6.37293851       6.37293851      13.54195690
W        7.96617313       7.96617313      15.13512341
W        6.37293851       6.37293851      16.72824439
W        7.96617313       7.96617313      18.32140151
W        6.37293851       6.37293851      19.91456100
W        7.96617313       7.96617313      21.50772269
W        6.37293851       6.37293851      23.10091978
W        7.96617313       7.96617313      24.69409217
W        6.37293851       6.37293851      27.92824773
W        7.96617313       7.96617313      29.52142012
W        6.37293851       6.37293851      31.11461721
W        7.96617313       7.96617313      32.70777890
W        6.37293851       6.37293851      34.30093839
W        7.96617313       7.96617313      35.89409551
W        6.37293851       6.37293851      37.48721650
W        7.96617313       7.96617313      39.08038300
W        6.37293851       6.37293851      40.67360116
W        7.96617313       7.96617313      42.26681623
W        6.37293851       6.37293851      43.86001445
W        7.96617313       7.96617313      45.45319647
W        6.37293851       6.37293851      47.04633796
W        7.96617313       7.96617313      48.63944008
W        6.37293851       6.37293851      50.23259369
W        7.96617313       7.96617313      51.82576730
288
Lattice="9.559407760912599 1.5551574685670926e-18 -1.2681778328733722e-17 1.5551574685670926e-18 9.559407760912599 -3.802032394954696e-17 -6.226046143134533e-17 -1.9250595450418562e-16 52.72490400372998" Properties=species:S:1:pos:R:3 vacuum_gap_Ang=1.7435897435897436 frame_index=17 pbc="T T T"
W       -0.00000000       0.00000000       0.79657260
W        1.59323463       1.59323463       2.38974621
W       -0.00000000       0.00000000       3.98289982
W        1.59323463       1.59323463       5.57600194
W        0.00000000       0.00000000       7.16914343
W        1.59323463       1.59323463       8.76232545
W       -0.00000000      -0.00000000      10.35552367
W        1.59323463       1.59323463      11.94873874
W        0.00000000      -0.00000000      13.54195690
W        1.59323463       1.59323463      15.13512341
W        0.00000000       0.00000000      16.72824439
W        1.59323463       1.59323463      18.32140151
W        0.00000000       0.00000000      19.91456100
W        1.59323463       1.59323463      21.50772269
W       -0.00000000      -0.00000000      23.10091978
W        1.59323463       1.59323463      24.69409217
W        0.00000000       0.00000000      28.03081184
W        1.59323463       1.59323463      29.62398422
W        0.00000000      -0.00000000      31.21718131
W        1.59323463       1.59323463      32.81034300
W        0.00000000       0.00000000      34.40350249
W        1.59323463       1.59323463      35.99665962
W        0.00000000      -0.00000000      37.58978060
W        1.59323463       1.59323463      39.18294711
W       -0.00000000      -0.00000000      40.77616526
W        1.59323463       1.59323463      42.36938033
W        0.00000000      -0.00000000      43.96257855
W        1.59323463       1.59323463      45.55576057
W        0.00000000      -0.00000000      47.14890207
W        1.59323463       1.59323463      48.74200418
W       -0.00000000      -0.00000000      50.33515779
W        1.59323463       1.59323463      51.92833141
W       -0.00000000       3.18646925       0.79657260
W        1.59323463       4.77970388       2.38974621
W       -0.00000000       3.18646925       3.98289982
W        1.59323463       4.77970388       5.57600194
W        0.00000000       3.18646925       7.16914343
W        1.59323463       4.77970388       8.76232545
W        0.00000000       3.18646925      10.35552367
W        1.59323463       4.77970388      11.94873874
W       -0.00000000       3.18646925      13.54195690
W        1.59323463       4.77970388      15.13512341
W       -0.00000000       3.18646925      16.72824439
W        1.59323463       4.77970388      18.32140151
W        0.00000000       3.18646925      19.91456100
W        1.59323463       4.77970388      21.50772269
W        0.00000000       3.18646925      23.10091978
W        1.59323463       4.77970388      24.69409217
W        0.00000000       3.18646925      28.03081184
W        1.59323463       4.77970388      29.62398422
W       -0.00000000       3.18646925      31.21718131
W        1.59323463       4.77970388      32.81034300
W        0.00000000       3.18646925      34.40350249
W        1.59323463       4.77970388      35.99665962
W        0.00000000       3.18646925      37.58978060
W        1.59323463       4.77970388      39.18294711
W        0.00000000       3.18646925      40.77616526
W        1.59323463       4.77970388      42.36938033
W        0.00000000       3.18646925      43.96257855
W        1.59323463       4.77970388      45.55576057
W        0.00000000       3.18646925      47.14890207
W        1.59323463       4.77970388      48.74200418
W        0.00000000       3.18646925      50.33515779
W        1.59323463       4.77970388      51.92833141
W        0.00000000       6.37293851       0.79657260
W        1.59323463       7.96617313       2.38974621
W       -0.00000000       6.37293851       3.98289982
W        1.59323463       7.96617313       5.57600194
W        0.00000000       6.37293851       7.16914343
W        1.59323463       7.96617313       8.76232545
W       -0.00000000       6.37293851      10.35552367
W        1.59323463       7.96617313      11.94873874
W        0.00000000       6.37293851      13.54195690
W        1.59323463       7.96617313      15.13512341
W       -0.00000000       6.37293851      16.72824439
W        1.59323463       7.96617313      18.32140151
W        0.00000000       6.37293851      19.91456100
W        1.59323463       7.96617313      21.50772269
W        0.00000000       6.37293851      23.10091978
W        1.59323463       7.96617313      24.69409217
W       -0.00000000       6.37293851      28.03081184
W        1.59323463       7.96617313      29.62398422
W        0.00000000       6.37293851      31.21718131
W        1.59323463       7.96617313      32.81034300
W       -0.00000000       6.37293851      34.40350249
W        1.59323463       7.96617313      35.99665962
W        0.00000000       6.37293851      37.58978060
W        1.59323463       7.96617313      39.18294711
W       -0.00000000       6.37293851      40.77616526
W        1.59323463       7.96617313      42.36938033
W        0.00000000       6.37293851      43.96257855
W        1.59323463       7.96617313      45.55576057
W       -0.00000000       6.37293851      47.14890207
W        1.59323463       7.96617313      48.74200418
W       -0.00000000       6.37293851      50.33515779
W        1.59323463       7.96617313      51.92833141
W        3.18646925      -0.00000000       0.79657260
W        4.77970388       1.59323463       2.38974621
W        3.18646925       0.00000000       3.98289982
W        4.77970388       1.59323463       5.57600194
W        3.18646925       0.00000000       7.16914343
W        4.77970388       1.59323463       8.76232545
W        3.18646925       0.00000000      10.35552367
W        4.77970388       1.59323463      11.94873874
W        3.18646925       0.00000000      13.54195690
W        4.77970388       1.59323463      15.13512341
W        3.18646925      -0.00000000      16.72824439
W        4.77970388       1.59323463      18.32140151
W        3.18646925      -0.00000000      19.91456100
W        4.77970388       1.59323463      21.50772269
W        3.18646925       0.00000000      23.10091978
W        4.77970388       1.59323463      24.69409217
W        3.18646925       0.00000000      28.03081184
W        4.77970388       1.59323463      29.62398422
W        3.18646925      -0.00000000      31.21718131
W        4.77970388       1.59323463      32.81034300
W        3.18646925       0.00000000      34.40350249
W        4.77970388       1.59323463      35.99665962
W        3.18646925      -0.00000000      37.58978060
W        4.77970388       1.59323463      39.18294711
W        3.18646925       0.00000000      40.77616526
W        4.77970388       1.59323463      42.36938033
W        3.18646925      -0.00000000      43.96257855
W        4.77970388       1.59323463      45.55576057
W        3.18646925       0.00000000      47.14890207
W        4.77970388       1.59323463      48.74200418
W        3.18646925       0.00000000      50.33515779
W        4.77970388       1.59323463      51.92833141
W        3.18646925       3.18646925       0.79657260
W        4.77970388       4.77970388       2.38974621
W        3.18646925       3.18646925       3.98289982
W        4.77970388       4.77970388       5.57600194
W        3.18646925       3.18646925       7.16914343
W        4.77970388       4.77970388       8.76232545
W        3.18646925       3.18646925      10.35552367
W        4.77970388       4.77970388      11.94873874
W        3.18646925       3.18646925      13.54195690
W        4.77970388       4.77970388      15.13512341
W        3.18646925       3.18646925      16.72824439
W        4.77970388       4.77970388      18.32140151
W        3.18646925       3.18646925      19.91456100
W        4.77970388       4.77970388      21.50772269
W        3.18646925       3.18646925      23.10091978
W        4.77970388       4.77970388      24.69409217
W        3.18646925       3.18646925      28.03081184
W        4.77970388       4.77970388      29.62398422
W        3.18646925       3.18646925      31.21718131
W        4.77970388       4.77970388      32.81034300
W        3.18646925       3.18646925      34.40350249
W        4.77970388       4.77970388      35.99665962
W        3.18646925       3.18646925      37.58978060
W        4.77970388       4.77970388      39.18294711
W        3.18646925       3.18646925      40.77616526
W        4.77970388       4.77970388      42.36938033
W        3.18646925       3.18646925      43.96257855
W        4.77970388       4.77970388      45.55576057
W        3.18646925       3.18646925      47.14890207
W        4.77970388       4.77970388      48.74200418
W        3.18646925       3.18646925      50.33515779
W        4.77970388       4.77970388      51.92833141
W        3.18646925       6.37293851       0.79657260
W        4.77970388       7.96617313       2.38974621
W        3.18646925       6.37293851       3.98289982
W        4.77970388       7.96617313       5.57600194
W        3.18646925       6.37293851       7.16914343
W        4.77970388       7.96617313       8.76232545
W        3.18646925       6.37293851      10.35552367
W        4.77970388       7.96617313      11.94873874
W        3.18646925       6.37293851      13.54195690
W        4.77970388       7.96617313      15.13512341
W        3.18646925       6.37293851      16.72824439
W        4.77970388       7.96617313      18.32140151
W        3.18646925       6.37293851      19.91456100
W        4.77970388       7.96617313      21.50772269
W        3.18646925       6.37293851      23.10091978
W        4.77970388       7.96617313      24.69409217
W        3.18646925       6.37293851      28.03081184
W        4.77970388       7.96617313      29.62398422
W        3.18646925       6.37293851      31.21718131
W        4.77970388       7.96617313      32.81034300
W        3.18646925       6.37293851      34.40350249
W        4.77970388       7.96617313      35.99665962
W        3.18646925       6.37293851      37.58978060
W        4.77970388       7.96617313      39.18294711
W        3.18646925       6.37293851      40.77616526
W        4.77970388       7.96617313      42.36938033
W        3.18646925       6.37293851      43.96257855
W        4.77970388       7.96617313      45.55576057
W        3.18646925       6.37293851      47.14890207
W        4.77970388       7.96617313      48.74200418
W        3.18646925       6.37293851      50.33515779
W        4.77970388       7.96617313      51.92833141
W        6.37293851       0.00000000       0.79657260
W        7.96617313       1.59323463       2.38974621
W        6.37293851       0.00000000       3.98289982
W        7.96617313       1.59323463       5.57600194
W        6.37293851       0.00000000       7.16914343
W        7.96617313       1.59323463       8.76232545
W        6.37293851      -0.00000000      10.35552367
W        7.96617313       1.59323463      11.94873874
W        6.37293851       0.00000000      13.54195690
W        7.96617313       1.59323463      15.13512341
W        6.37293851      -0.00000000      16.72824439
W        7.96617313       1.59323463      18.32140151
W        6.37293851      -0.00000000      19.91456100
W        7.96617313       1.59323463      21.50772269
W        6.37293851       0.00000000      23.10091978
W        7.96617313       1.59323463      24.69409217
W        6.37293851      -0.00000000      28.03081184
W        7.96617313       1.59323463      29.62398422
W        6.37293851       0.00000000      31.21718131
W        7.96617313       1.59323463      32.81034300
W        6.37293851      -0.00000000      34.40350249
W        7.96617313       1.59323463      35.99665962
W        6.37293851       0.00000000      37.58978060
W        7.96617313       1.59323463      39.18294711
W        6.37293851      -0.00000000      40.77616526
W        7.96617313       1.59323463      42.36938033
W        6.37293851      -0.00000000      43.96257855
W        7.96617313       1.59323463      45.55576057
W        6.37293851      -0.00000000      47.14890207
W        7.96617313       1.59323463      48.74200418
W        6.37293851       0.00000000      50.33515779
W        7.96617313       1.59323463      51.92833141
W        6.37293851       3.18646925       0.79657260
W        7.96617313       4.77970388       2.38974621
W        6.37293851       3.18646925       3.98289982
W        7.96617313       4.77970388       5.57600194
W        6.37293851       3.18646925       7.16914343
W        7.96617313       4.77970388       8.76232545
W        6.37293851       3.18646925      10.35552367
W        7.96617313       4.77970388      11.94873874
W        6.37293851       3.18646925      13.54195690
W        7.96617313       4.77970388      15.13512341
W        6.37293851       3.18646925      16.72824439
W        7.96617313       4.77970388      18.32140151
W        6.37293851       3.18646925      19.91456100
W        7.96617313       4.77970388      21.50772269
W        6.37293851       3.18646925      23.10091978
W        7.96617313       4.77970388      24.69409217
W        6.37293851       3.18646925      28.03081184
W        7.96617313       4.77970388      29.62398422
W        6.37293851       3.18646925      31.21718131
W        7.96617313       4.77970388      32.81034300
W        6.37293851       3.18646925      34.40350249
W        7.96617313       4.77970388      35.99665962
W        6.37293851       3.18646925      37.58978060
W        7.96617313       4.77970388      39.18294711
W        6.37293851       3.18646925      40.77616526
W        7.96617313       4.77970388      42.36938033
W        6.37293851       3.18646925      43.96257855
W        7.96617313       4.77970388      45.55576057
W        6.37293851       3.18646925      47.14890207
W        7.96617313       4.77970388      48.74200418
W        6.37293851       3.18646925      50.33515779
W        7.96617313       4.77970388      51.92833141
W        6.37293851       6.37293851       0.79657260
W        7.96617313       7.96617313       2.38974621
W        6.37293851       6.37293851       3.98289982
W        7.96617313       7.96617313       5.57600194
W        6.37293851       6.37293851       7.16914343
W        7.96617313       7.96617313       8.76232545
W        6.37293851       6.37293851      10.35552367
W        7.96617313       7.96617313      11.94873874
W        6.37293851       6.37293851      13.54195690
W        7.96617313       7.96617313      15.13512341
W        6.37293851       6.37293851      16.72824439
W        7.96617313       7.96617313      18.32140151
W        6.37293851       6.37293851      19.91456100
W        7.96617313       7.96617313      21.50772269
W        6.37293851       6.37293851      23.10091978
W        7.96617313       7.96617313      24.69409217
W        6.37293851       6.37293851      28.03081184
W        7.96617313       7.96617313      29.62398422
W        6.37293851       6.37293851      31.21718131
W        7.96617313       7.96617313      32.81034300
W        6.37293851       6.37293851      34.40350249
W        7.96617313       7.96617313      35.99665962
W        6.37293851       6.37293851      37.58978060
W        7.96617313       7.96617313      39.18294711
W        6.37293851       6.37293851      40.77616526
W        7.96617313       7.96617313      42.36938033
W        6.37293851       6.37293851      43.96257855
W        7.96617313       7.96617313      45.55576057
W        6.37293851       6.37293851      47.14890207
W        7.96617313       7.96617313      48.74200418
W        6.37293851       6.37293851      50.33515779
W        7.96617313       7.96617313      51.92833141
288
Lattice="9.559407760912599 1.5551574685670926e-18 -1.2681778328733722e-17 1.5551574685670926e-18 9.559407760912599 -3.802032394954696e-17 -6.226046143134533e-17 -1.9250595450418562e-16 52.827468106294084" Properties=species:S:1:pos:R:3 vacuum_gap_Ang=1.846153846153846 frame_index=18 pbc="T T T"
W       -0.00000000       0.00000000       0.79657260
W        1.59323463       1.59323463       2.38974621
W       -0.00000000       0.00000000       3.98289982
W        1.59323463       1.59323463       5.57600194
W        0.00000000       0.00000000       7.16914343
W        1.59323463       1.59323463       8.76232545
W       -0.00000000      -0.00000000      10.35552367
W        1.59323463       1.59323463      11.94873874
W        0.00000000      -0.00000000      13.54195690
W        1.59323463       1.59323463      15.13512341
W        0.00000000       0.00000000      16.72824439
W        1.59323463       1.59323463      18.32140151
W        0.00000000       0.00000000      19.91456100
W        1.59323463       1.59323463      21.50772269
W       -0.00000000      -0.00000000      23.10091978
W        1.59323463       1.59323463      24.69409217
W        0.00000000       0.00000000      28.13337594
W        1.59323463       1.59323463      29.72654832
W        0.00000000      -0.00000000      31.31974541
W        1.59323463       1.59323463      32.91290710
W        0.00000000       0.00000000      34.50606659
W        1.59323463       1.59323463      36.09922372
W        0.00000000      -0.00000000      37.69234470
W        1.59323463       1.59323463      39.28551121
W       -0.00000000      -0.00000000      40.87872936
W        1.59323463       1.59323463      42.47194443
W        0.00000000      -0.00000000      44.06514265
W        1.59323463       1.59323463      45.65832467
W        0.00000000      -0.00000000      47.25146617
W        1.59323463       1.59323463      48.84456829
W       -0.00000000      -0.00000000      50.43772189
W        1.59323463       1.59323463      52.03089551
W       -0.00000000       3.18646925       0.79657260
W        1.59323463       4.77970388       2.38974621
W       -0.00000000       3.18646925       3.98289982
W        1.59323463       4.77970388       5.57600194
W        0.00000000       3.18646925       7.16914343
W        1.59323463       4.77970388       8.76232545
W        0.00000000       3.18646925      10.35552367
W        1.59323463       4.77970388      11.94873874
W       -0.00000000       3.18646925      13.54195690
W        1.59323463       4.77970388      15.13512341
W       -0.00000000       3.18646925      16.72824439
W        1.59323463       4.77970388      18.32140151
W        0.00000000       3.18646925      19.91456100
W        1.59323463       4.77970388      21.50772269
W        0.00000000       3.18646925      23.10091978
W        1.59323463       4.77970388      24.69409217
W        0.00000000       3.18646925      28.13337594
W        1.59323463       4.77970388      29.72654832
W       -0.00000000       3.18646925      31.31974541
W        1.59323463       4.77970388      32.91290710
W        0.00000000       3.18646925      34.50606659
W        1.59323463       4.77970388      36.09922372
W        0.00000000       3.18646925      37.69234470
W        1.59323463       4.77970388      39.28551121
W        0.00000000       3.18646925      40.87872936
W        1.59323463       4.77970388      42.47194443
W        0.00000000       3.18646925      44.06514265
W        1.59323463       4.77970388      45.65832467
W        0.00000000       3.18646925      47.25146617
W        1.59323463       4.77970388      48.84456829
W        0.00000000       3.18646925      50.43772189
W        1.59323463       4.77970388      52.03089551
W        0.00000000       6.37293851       0.79657260
W        1.59323463       7.96617313       2.38974621
W       -0.00000000       6.37293851       3.98289982
W        1.59323463       7.96617313       5.57600194
W        0.00000000       6.37293851       7.16914343
W        1.59323463       7.96617313       8.76232545
W       -0.00000000       6.37293851      10.35552367
W        1.59323463       7.96617313      11.94873874
W        0.00000000       6.37293851      13.54195690
W        1.59323463       7.96617313      15.13512341
W       -0.00000000       6.37293851      16.72824439
W        1.59323463       7.96617313      18.32140151
W        0.00000000       6.37293851      19.91456100
W        1.59323463       7.96617313      21.50772269
W        0.00000000       6.37293851      23.10091978
W        1.59323463       7.96617313      24.69409217
W       -0.00000000       6.37293851      28.13337594
W        1.59323463       7.96617313      29.72654832
W        0.00000000       6.37293851      31.31974541
W        1.59323463       7.96617313      32.91290710
W       -0.00000000       6.37293851      34.50606659
W        1.59323463       7.96617313      36.09922372
W        0.00000000       6.37293851      37.69234470
W        1.59323463       7.96617313      39.28551121
W       -0.00000000       6.37293851      40.87872936
W        1.59323463       7.96617313      42.47194443
W        0.00000000       6.37293851      44.06514265
W        1.59323463       7.96617313      45.65832467
W       -0.00000000       6.37293851      47.25146617
W        1.59323463       7.96617313      48.84456829
W       -0.00000000       6.37293851      50.43772189
W        1.59323463       7.96617313      52.03089551
W        3.18646925      -0.00000000       0.79657260
W        4.77970388       1.59323463       2.38974621
W        3.18646925       0.00000000       3.98289982
W        4.77970388       1.59323463       5.57600194
W        3.18646925       0.00000000       7.16914343
W        4.77970388       1.59323463       8.76232545
W        3.18646925       0.00000000      10.35552367
W        4.77970388       1.59323463      11.94873874
W        3.18646925       0.00000000      13.54195690
W        4.77970388       1.59323463      15.13512341
W        3.18646925      -0.00000000      16.72824439
W        4.77970388       1.59323463      18.32140151
W        3.18646925      -0.00000000      19.91456100
W        4.77970388       1.59323463      21.50772269
W        3.18646925       0.00000000      23.10091978
W        4.77970388       1.59323463      24.69409217
W        3.18646925       0.00000000      28.13337594
W        4.77970388       1.59323463      29.72654832
W        3.18646925      -0.00000000      31.31974541
W        4.77970388       1.59323463      32.91290710
W        3.18646925       0.00000000      34.50606659
W        4.77970388       1.59323463      36.09922372
W        3.18646925      -0.00000000      37.69234470
W        4.77970388       1.59323463      39.28551121
W        3.18646925       0.00000000      40.87872936
W        4.77970388       1.59323463      42.47194443
W        3.18646925      -0.00000000      44.06514265
W        4.77970388       1.59323463      45.65832467
W        3.18646925       0.00000000      47.25146617
W        4.77970388       1.59323463      48.84456829
W        3.18646925       0.00000000      50.43772189
W        4.77970388       1.59323463      52.03089551
W        3.18646925       3.18646925       0.79657260
W        4.77970388       4.77970388       2.38974621
W        3.18646925       3.18646925       3.98289982
W        4.77970388       4.77970388       5.57600194
W        3.18646925       3.18646925       7.16914343
W        4.77970388       4.77970388       8.76232545
W        3.18646925       3.18646925      10.35552367
W        4.77970388       4.77970388      11.94873874
W        3.18646925       3.18646925      13.54195690
W        4.77970388       4.77970388      15.13512341
W        3.18646925       3.18646925      16.72824439
W        4.77970388       4.77970388      18.32140151
W        3.18646925       3.18646925      19.91456100
W        4.77970388       4.77970388      21.50772269
W        3.18646925       3.18646925      23.10091978
W        4.77970388       4.77970388      24.69409217
W        3.18646925       3.18646925      28.13337594
W        4.77970388       4.77970388      29.72654832
W        3.18646925       3.18646925      31.31974541
W        4.77970388       4.77970388      32.91290710
W        3.18646925       3.18646925      34.50606659
W        4.77970388       4.77970388      36.09922372
W        3.18646925       3.18646925      37.69234470
W        4.77970388       4.77970388      39.28551121
W        3.18646925       3.18646925      40.87872936
W        4.77970388       4.77970388      42.47194443
W        3.18646925       3.18646925      44.06514265
W        4.77970388       4.77970388      45.65832467
W        3.18646925       3.18646925      47.25146617
W        4.77970388       4.77970388      48.84456829
W        3.18646925       3.18646925      50.43772189
W        4.77970388       4.77970388      52.03089551
W        3.18646925       6.37293851       0.79657260
W        4.77970388       7.96617313       2.38974621
W        3.18646925       6.37293851       3.98289982
W        4.77970388       7.96617313       5.57600194
W        3.18646925       6.37293851       7.16914343
W        4.77970388       7.96617313       8.76232545
W        3.18646925       6.37293851      10.35552367
W        4.77970388       7.96617313      11.94873874
W        3.18646925       6.37293851      13.54195690
W        4.77970388       7.96617313      15.13512341
W        3.18646925       6.37293851      16.72824439
W        4.77970388       7.96617313      18.32140151
W        3.18646925       6.37293851      19.91456100
W        4.77970388       7.96617313      21.50772269
W        3.18646925       6.37293851      23.10091978
W        4.77970388       7.96617313      24.69409217
W        3.18646925       6.37293851      28.13337594
W        4.77970388       7.96617313      29.72654832
W        3.18646925       6.37293851      31.31974541
W        4.77970388       7.96617313      32.91290710
W        3.18646925       6.37293851      34.50606659
W        4.77970388       7.96617313      36.09922372
W        3.18646925       6.37293851      37.69234470
W        4.77970388       7.96617313      39.28551121
W        3.18646925       6.37293851      40.87872936
W        4.77970388       7.96617313      42.47194443
W        3.18646925       6.37293851      44.06514265
W        4.77970388       7.96617313      45.65832467
W        3.18646925       6.37293851      47.25146617
W        4.77970388       7.96617313      48.84456829
W        3.18646925       6.37293851      50.43772189
W        4.77970388       7.96617313      52.03089551
W        6.37293851       0.00000000       0.79657260
W        7.96617313       1.59323463       2.38974621
W        6.37293851       0.00000000       3.98289982
W        7.96617313       1.59323463       5.57600194
W        6.37293851       0.00000000       7.16914343
W        7.96617313       1.59323463       8.76232545
W        6.37293851      -0.00000000      10.35552367
W        7.96617313       1.59323463      11.94873874
W        6.37293851       0.00000000      13.54195690
W        7.96617313       1.59323463      15.13512341
W        6.37293851      -0.00000000      16.72824439
W        7.96617313       1.59323463      18.32140151
W        6.37293851      -0.00000000      19.91456100
W        7.96617313       1.59323463      21.50772269
W        6.37293851       0.00000000      23.10091978
W        7.96617313       1.59323463      24.69409217
W        6.37293851      -0.00000000      28.13337594
W        7.96617313       1.59323463      29.72654832
W        6.37293851       0.00000000      31.31974541
W        7.96617313       1.59323463      32.91290710
W        6.37293851      -0.00000000      34.50606659
W        7.96617313       1.59323463      36.09922372
W        6.37293851       0.00000000      37.69234470
W        7.96617313       1.59323463      39.28551121
W        6.37293851      -0.00000000      40.87872936
W        7.96617313       1.59323463      42.47194443
W        6.37293851      -0.00000000      44.06514265
W        7.96617313       1.59323463      45.65832467
W        6.37293851      -0.00000000      47.25146617
W        7.96617313       1.59323463      48.84456829
W        6.37293851       0.00000000      50.43772189
W        7.96617313       1.59323463      52.03089551
W        6.37293851       3.18646925       0.79657260
W        7.96617313       4.77970388       2.38974621
W        6.37293851       3.18646925       3.98289982
W        7.96617313       4.77970388       5.57600194
W        6.37293851       3.18646925       7.16914343
W        7.96617313       4.77970388       8.76232545
W        6.37293851       3.18646925      10.35552367
W        7.96617313       4.77970388      11.94873874
W        6.37293851       3.18646925      13.54195690
W        7.96617313       4.77970388      15.13512341
W        6.37293851       3.18646925      16.72824439
W        7.96617313       4.77970388      18.32140151
W        6.37293851       3.18646925      19.91456100
W        7.96617313       4.77970388      21.50772269
W        6.37293851       3.18646925      23.10091978
W        7.96617313       4.77970388      24.69409217
W        6.37293851       3.18646925      28.13337594
W        7.96617313       4.77970388      29.72654832
W        6.37293851       3.18646925      31.31974541
W        7.96617313       4.77970388      32.91290710
W        6.37293851       3.18646925      34.50606659
W        7.96617313       4.77970388      36.09922372
W        6.37293851       3.18646925      37.69234470
W        7.96617313       4.77970388      39.28551121
W        6.37293851       3.18646925      40.87872936
W        7.96617313       4.77970388      42.47194443
W        6.37293851       3.18646925      44.06514265
W        7.96617313       4.77970388      45.65832467
W        6.37293851       3.18646925      47.25146617
W        7.96617313       4.77970388      48.84456829
W        6.37293851       3.18646925      50.43772189
W        7.96617313       4.77970388      52.03089551
W        6.37293851       6.37293851       0.79657260
W        7.96617313       7.96617313       2.38974621
W        6.37293851       6.37293851       3.98289982
W        7.96617313       7.96617313       5.57600194
W        6.37293851       6.37293851       7.16914343
W        7.96617313       7.96617313       8.76232545
W        6.37293851       6.37293851      10.35552367
W        7.96617313       7.96617313      11.94873874
W        6.37293851       6.37293851      13.54195690
W        7.96617313       7.96617313      15.13512341
W        6.37293851       6.37293851      16.72824439
W        7.96617313       7.96617313      18.32140151
W        6.37293851       6.37293851      19.91456100
W        7.96617313       7.96617313      21.50772269
W        6.37293851       6.37293851      23.10091978
W        7.96617313       7.96617313      24.69409217
W        6.37293851       6.37293851      28.13337594
W        7.96617313       7.96617313      29.72654832
W        6.37293851       6.37293851      31.31974541
W        7.96617313       7.96617313      32.91290710
W        6.37293851       6.37293851      34.50606659
W        7.96617313       7.96617313      36.09922372
W        6.37293851       6.37293851      37.69234470
W        7.96617313       7.96617313      39.28551121
W        6.37293851       6.37293851      40.87872936
W        7.96617313       7.96617313      42.47194443
W        6.37293851       6.37293851      44.06514265
W        7.96617313       7.96617313      45.65832467
W        6.37293851       6.37293851      47.25146617
W        7.96617313       7.96617313      48.84456829
W        6.37293851       6.37293851      50.43772189
W        7.96617313       7.96617313      52.03089551
288
Lattice="9.559407760912599 1.5551574685670926e-18 -1.2681778328733722e-17 1.5551574685670926e-18 9.559407760912599 -3.802032394954696e-17 -6.226046143134533e-17 -1.9250595450418562e-16 52.93003220885819" Properties=species:S:1:pos:R:3 vacuum_gap_Ang=1.9487179487179487 frame_index=19 pbc="T T T"
W       -0.00000000       0.00000000       0.79657260
W        1.59323463       1.59323463       2.38974621
W       -0.00000000       0.00000000       3.98289982
W        1.59323463       1.59323463       5.57600194
W        0.00000000       0.00000000       7.16914343
W        1.59323463       1.59323463       8.76232545
W       -0.00000000      -0.00000000      10.35552367
W        1.59323463       1.59323463      11.94873874
W        0.00000000      -0.00000000      13.54195690
W        1.59323463       1.59323463      15.13512341
W        0.00000000       0.00000000      16.72824439
W        1.59323463       1.59323463      18.32140151
W        0.00000000       0.00000000      19.91456100
W        1.59323463       1.59323463      21.50772269
W       -0.00000000      -0.00000000      23.10091978
W        1.59323463       1.59323463      24.69409217
W        0.00000000       0.00000000      28.23594004
W        1.59323463       1.59323463      29.82911242
W        0.00000000      -0.00000000      31.42230952
W        1.59323463       1.59323463      33.01547120
W        0.00000000       0.00000000      34.60863070
W        1.59323463       1.59323463      36.20178782
W        0.00000000      -0.00000000      37.79490880
W        1.59323463       1.59323463      39.38807531
W       -0.00000000      -0.00000000      40.98129347
W        1.59323463       1.59323463      42.57450853
W        0.00000000      -0.00000000      44.16770675
W        1.59323463       1.59323463      45.76088878
W        0.00000000      -0.00000000      47.35403027
W        1.59323463       1.59323463      48.94713239
W       -0.00000000      -0.00000000      50.54028600
W        1.59323463       1.59323463      52.13345961
W       -0.00000000       3.18646925       0.79657260
W        1.59323463       4.77970388       2.38974621
W       -0.00000000       3.18646925       3.98289982
W        1.59323463       4.77970388       5.57600194
W        0.00000000       3.18646925       7.16914343
W        1.59323463       4.77970388       8.76232545
W        0.00000000       3.18646925      10.35552367
W        1.59323463       4.77970388      11.94873874
W       -0.00000000       3.18646925      13.54195690
W        1.59323463       4.77970388      15.13512341
W       -0.00000000       3.18646925      16.72824439
W        1.59323463       4.77970388      18.32140151
W        0.00000000       3.18646925      19.91456100
W        1.59323463       4.77970388      21.50772269
W        0.00000000       3.18646925      23.10091978
W        1.59323463       4.77970388      24.69409217
W        0.00000000       3.18646925      28.23594004
W        1.59323463       4.77970388      29.82911242
W       -0.00000000       3.18646925      31.42230952
W        1.59323463       4.77970388      33.01547120
W        0.00000000       3.18646925      34.60863070
W        1.59323463       4.77970388      36.20178782
W        0.00000000       3.18646925      37.79490880
W        1.59323463       4.77970388      39.38807531
W        0.00000000       3.18646925      40.98129347
W        1.59323463       4.77970388      42.57450853
W        0.00000000       3.18646925      44.16770675
W        1.59323463       4.77970388      45.76088878
W        0.00000000       3.18646925      47.35403027
W        1.59323463       4.77970388      48.94713239
W        0.00000000       3.18646925      50.54028600
W        1.59323463       4.77970388      52.13345961
W        0.00000000       6.37293851       0.79657260
W        1.59323463       7.96617313       2.38974621
W       -0.00000000       6.37293851       3.98289982
W        1.59323463       7.96617313       5.57600194
W        0.00000000       6.37293851       7.16914343
W        1.59323463       7.96617313       8.76232545
W       -0.00000000       6.37293851      10.35552367
W        1.59323463       7.96617313      11.94873874
W        0.00000000       6.37293851      13.54195690
W        1.59323463       7.96617313      15.13512341
W       -0.00000000       6.37293851      16.72824439
W        1.59323463       7.96617313      18.32140151
W        0.00000000       6.37293851      19.91456100
W        1.59323463       7.96617313      21.50772269
W        0.00000000       6.37293851      23.10091978
W        1.59323463       7.96617313      24.69409217
W       -0.00000000       6.37293851      28.23594004
W        1.59323463       7.96617313      29.82911242
W        0.00000000       6.37293851      31.42230952
W        1.59323463       7.96617313      33.01547120
W       -0.00000000       6.37293851      34.60863070
W        1.59323463       7.96617313      36.20178782
W        0.00000000       6.37293851      37.79490880
W        1.59323463       7.96617313      39.38807531
W       -0.00000000       6.37293851      40.98129347
W        1.59323463       7.96617313      42.57450853
W        0.00000000       6.37293851      44.16770675
W        1.59323463       7.96617313      45.76088878
W       -0.00000000       6.37293851      47.35403027
W        1.59323463       7.96617313      48.94713239
W       -0.00000000       6.37293851      50.54028600
W        1.59323463       7.96617313      52.13345961
W        3.18646925      -0.00000000       0.79657260
W        4.77970388       1.59323463       2.38974621
W        3.18646925       0.00000000       3.98289982
W        4.77970388       1.59323463       5.57600194
W        3.18646925       0.00000000       7.16914343
W        4.77970388       1.59323463       8.76232545
W        3.18646925       0.00000000      10.35552367
W        4.77970388       1.59323463      11.94873874
W        3.18646925       0.00000000      13.54195690
W        4.77970388       1.59323463      15.13512341
W        3.18646925      -0.00000000      16.72824439
W        4.77970388       1.59323463      18.32140151
W        3.18646925      -0.00000000      19.91456100
W        4.77970388       1.59323463      21.50772269
W        3.18646925       0.00000000      23.10091978
W        4.77970388       1.59323463      24.69409217
W        3.18646925       0.00000000      28.23594004
W        4.77970388       1.59323463      29.82911242
W        3.18646925      -0.00000000      31.42230952
W        4.77970388       1.59323463      33.01547120
W        3.18646925       0.00000000      34.60863070
W        4.77970388       1.59323463      36.20178782
W        3.18646925      -0.00000000      37.79490880
W        4.77970388       1.59323463      39.38807531
W        3.18646925       0.00000000      40.98129347
W        4.77970388       1.59323463      42.57450853
W        3.18646925      -0.00000000      44.16770675
W        4.77970388       1.59323463      45.76088878
W        3.18646925       0.00000000      47.35403027
W        4.77970388       1.59323463      48.94713239
W        3.18646925       0.00000000      50.54028600
W        4.77970388       1.59323463      52.13345961
W        3.18646925       3.18646925       0.79657260
W        4.77970388       4.77970388       2.38974621
W        3.18646925       3.18646925       3.98289982
W        4.77970388       4.77970388       5.57600194
W        3.18646925       3.18646925       7.16914343
W        4.77970388       4.77970388       8.76232545
W        3.18646925       3.18646925      10.35552367
W        4.77970388       4.77970388      11.94873874
W        3.18646925       3.18646925      13.54195690
W        4.77970388       4.77970388      15.13512341
W        3.18646925       3.18646925      16.72824439
W        4.77970388       4.77970388      18.32140151
W        3.18646925       3.18646925      19.91456100
W        4.77970388       4.77970388      21.50772269
W        3.18646925       3.18646925      23.10091978
W        4.77970388       4.77970388      24.69409217
W        3.18646925       3.18646925      28.23594004
W        4.77970388       4.77970388      29.82911242
W        3.18646925       3.18646925      31.42230952
W        4.77970388       4.77970388      33.01547120
W        3.18646925       3.18646925      34.60863070
W        4.77970388       4.77970388      36.20178782
W        3.18646925       3.18646925      37.79490880
W        4.77970388       4.77970388      39.38807531
W        3.18646925       3.18646925      40.98129347
W        4.77970388       4.77970388      42.57450853
W        3.18646925       3.18646925      44.16770675
W        4.77970388       4.77970388      45.76088878
W        3.18646925       3.18646925      47.35403027
W        4.77970388       4.77970388      48.94713239
W        3.18646925       3.18646925      50.54028600
W        4.77970388       4.77970388      52.13345961
W        3.18646925       6.37293851       0.79657260
W        4.77970388       7.96617313       2.38974621
W        3.18646925       6.37293851       3.98289982
W        4.77970388       7.96617313       5.57600194
W        3.18646925       6.37293851       7.16914343
W        4.77970388       7.96617313       8.76232545
W        3.18646925       6.37293851      10.35552367
W        4.77970388       7.96617313      11.94873874
W        3.18646925       6.37293851      13.54195690
W        4.77970388       7.96617313      15.13512341
W        3.18646925       6.37293851      16.72824439
W        4.77970388       7.96617313      18.32140151
W        3.18646925       6.37293851      19.91456100
W        4.77970388       7.96617313      21.50772269
W        3.18646925       6.37293851      23.10091978
W        4.77970388       7.96617313      24.69409217
W        3.18646925       6.37293851      28.23594004
W        4.77970388       7.96617313      29.82911242
W        3.18646925       6.37293851      31.42230952
W        4.77970388       7.96617313      33.01547120
W        3.18646925       6.37293851      34.60863070
W        4.77970388       7.96617313      36.20178782
W        3.18646925       6.37293851      37.79490880
W        4.77970388       7.96617313      39.38807531
W        3.18646925       6.37293851      40.98129347
W        4.77970388       7.96617313      42.57450853
W        3.18646925       6.37293851      44.16770675
W        4.77970388       7.96617313      45.76088878
W        3.18646925       6.37293851      47.35403027
W        4.77970388       7.96617313      48.94713239
W        3.18646925       6.37293851      50.54028600
W        4.77970388       7.96617313      52.13345961
W        6.37293851       0.00000000       0.79657260
W        7.96617313       1.59323463       2.38974621
W        6.37293851       0.00000000       3.98289982
W        7.96617313       1.59323463       5.57600194
W        6.37293851       0.00000000       7.16914343
W        7.96617313       1.59323463       8.76232545
W        6.37293851      -0.00000000      10.35552367
W        7.96617313       1.59323463      11.94873874
W        6.37293851       0.00000000      13.54195690
W        7.96617313       1.59323463      15.13512341
W        6.37293851      -0.00000000      16.72824439
W        7.96617313       1.59323463      18.32140151
W        6.37293851      -0.00000000      19.91456100
W        7.96617313       1.59323463      21.50772269
W        6.37293851       0.00000000      23.10091978
W        7.96617313       1.59323463      24.69409217
W        6.37293851      -0.00000000      28.23594004
W        7.96617313       1.59323463      29.82911242
W        6.37293851       0.00000000      31.42230952
W        7.96617313       1.59323463      33.01547120
W        6.37293851      -0.00000000      34.60863070
W        7.96617313       1.59323463      36.20178782
W        6.37293851       0.00000000      37.79490880
W        7.96617313       1.59323463      39.38807531
W        6.37293851      -0.00000000      40.98129347
W        7.96617313       1.59323463      42.57450853
W        6.37293851      -0.00000000      44.16770675
W        7.96617313       1.59323463      45.76088878
W        6.37293851      -0.00000000      47.35403027
W        7.96617313       1.59323463      48.94713239
W        6.37293851       0.00000000      50.54028600
W        7.96617313       1.59323463      52.13345961
W        6.37293851       3.18646925       0.79657260
W        7.96617313       4.77970388       2.38974621
W        6.37293851       3.18646925       3.98289982
W        7.96617313       4.77970388       5.57600194
W        6.37293851       3.18646925       7.16914343
W        7.96617313       4.77970388       8.76232545
W        6.37293851       3.18646925      10.35552367
W        7.96617313       4.77970388      11.94873874
W        6.37293851       3.18646925      13.54195690
W        7.96617313       4.77970388      15.13512341
W        6.37293851       3.18646925      16.72824439
W        7.96617313       4.77970388      18.32140151
W        6.37293851       3.18646925      19.91456100
W        7.96617313       4.77970388      21.50772269
W        6.37293851       3.18646925      23.10091978
W        7.96617313       4.77970388      24.69409217
W        6.37293851       3.18646925      28.23594004
W        7.96617313       4.77970388      29.82911242
W        6.37293851       3.18646925      31.42230952
W        7.96617313       4.77970388      33.01547120
W        6.37293851       3.18646925      34.60863070
W        7.96617313       4.77970388      36.20178782
W        6.37293851       3.18646925      37.79490880
W        7.96617313       4.77970388      39.38807531
W        6.37293851       3.18646925      40.98129347
W        7.96617313       4.77970388      42.57450853
W        6.37293851       3.18646925      44.16770675
W        7.96617313       4.77970388      45.76088878
W        6.37293851       3.18646925      47.35403027
W        7.96617313       4.77970388      48.94713239
W        6.37293851       3.18646925      50.54028600
W        7.96617313       4.77970388      52.13345961
W        6.37293851       6.37293851       0.79657260
W        7.96617313       7.96617313       2.38974621
W        6.37293851       6.37293851       3.98289982
W        7.96617313       7.96617313       5.57600194
W        6.37293851       6.37293851       7.16914343
W        7.96617313       7.96617313       8.76232545
W        6.37293851       6.37293851      10.35552367
W        7.96617313       7.96617313      11.94873874
W        6.37293851       6.37293851      13.54195690
W        7.96617313       7.96617313      15.13512341
W        6.37293851       6.37293851      16.72824439
W        7.96617313       7.96617313      18.32140151
W        6.37293851       6.37293851      19.91456100
W        7.96617313       7.96617313      21.50772269
W        6.37293851       6.37293851      23.10091978
W        7.96617313       7.96617313      24.69409217
W        6.37293851       6.37293851      28.23594004
W        7.96617313       7.96617313      29.82911242
W        6.37293851       6.37293851      31.42230952
W        7.96617313       7.96617313      33.01547120
W        6.37293851       6.37293851      34.60863070
W        7.96617313       7.96617313      36.20178782
W        6.37293851       6.37293851      37.79490880
W        7.96617313       7.96617313      39.38807531
W        6.37293851       6.37293851      40.98129347
W        7.96617313       7.96617313      42.57450853
W        6.37293851       6.37293851      44.16770675
W        7.96617313       7.96617313      45.76088878
W        6.37293851       6.37293851      47.35403027
W        7.96617313       7.96617313      48.94713239
W        6.37293851       6.37293851      50.54028600
W        7.96617313       7.96617313      52.13345961
288
Lattice="9.559407760912599 1.5551574685670926e-18 -1.2681778328733722e-17 1.5551574685670926e-18 9.559407760912599 -3.802032394954696e-17 -6.226046143134533e-17 -1.9250595450418562e-16 53.03259631142229" Properties=species:S:1:pos:R:3 vacuum_gap_Ang=2.051282051282051 frame_index=20 pbc="T T T"
W       -0.00000000       0.00000000       0.79657260
W        1.59323463       1.59323463       2.38974621
W       -0.00000000       0.00000000       3.98289982
W        1.59323463       1.59323463       5.57600194
W        0.00000000       0.00000000       7.16914343
W        1.59323463       1.59323463       8.76232545
W       -0.00000000      -0.00000000      10.35552367
W        1.59323463       1.59323463      11.94873874
W        0.00000000      -0.00000000      13.54195690
W        1.59323463       1.59323463      15.13512341
W        0.00000000       0.00000000      16.72824439
W        1.59323463       1.59323463      18.32140151
W        0.00000000       0.00000000      19.91456100
W        1.59323463       1.59323463      21.50772269
W       -0.00000000      -0.00000000      23.10091978
W        1.59323463       1.59323463      24.69409217
W        0.00000000       0.00000000      28.33850414
W        1.59323463       1.59323463      29.93167653
W        0.00000000      -0.00000000      31.52487362
W        1.59323463       1.59323463      33.11803531
W        0.00000000       0.00000000      34.71119480
W        1.59323463       1.59323463      36.30435192
W        0.00000000      -0.00000000      37.89747291
W        1.59323463       1.59323463      39.49063941
W       -0.00000000      -0.00000000      41.08385757
W        1.59323463       1.59323463      42.67707264
W        0.00000000      -0.00000000      44.27027086
W        1.59323463       1.59323463      45.86345288
W        0.00000000      -0.00000000      47.45659437
W        1.59323463       1.59323463      49.04969649
W       -0.00000000      -0.00000000      50.64285010
W        1.59323463       1.59323463      52.23602371
W       -0.00000000       3.18646925       0.79657260
W        1.59323463       4.77970388       2.38974621
W       -0.00000000       3.18646925       3.98289982
W        1.59323463       4.77970388       5.57600194
W        0.00000000       3.18646925       7.16914343
W        1.59323463       4.77970388       8.76232545
W        0.00000000       3.18646925      10.35552367
W        1.59323463       4.77970388      11.94873874
W       -0.00000000       3.18646925      13.54195690
W        1.59323463       4.77970388      15.13512341
W       -0.00000000       3.18646925      16.72824439
W        1.59323463       4.77970388      18.32140151
W        0.00000000       3.18646925      19.91456100
W        1.59323463       4.77970388      21.50772269
W        0.00000000       3.18646925      23.10091978
W        1.59323463       4.77970388      24.69409217
W        0.00000000       3.18646925      28.33850414
W        1.59323463       4.77970388      29.93167653
W       -0.00000000       3.18646925      31.52487362
W        1.59323463       4.77970388      33.11803531
W        0.00000000       3.18646925      34.71119480
W        1.59323463       4.77970388      36.30435192
W        0.00000000       3.18646925      37.89747291
W        1.59323463       4.77970388      39.49063941
W        0.00000000       3.18646925      41.08385757
W        1.59323463       4.77970388      42.67707264
W        0.00000000       3.18646925      44.27027086
W        1.59323463       4.77970388      45.86345288
W        0.00000000       3.18646925      47.45659437
W        1.59323463       4.77970388      49.04969649
W        0.00000000       3.18646925      50.64285010
W        1.59323463       4.77970388      52.23602371
W        0.00000000       6.37293851       0.79657260
W        1.59323463       7.96617313       2.38974621
W       -0.00000000       6.37293851       3.98289982
W        1.59323463       7.96617313       5.57600194
W        0.00000000       6.37293851       7.16914343
W        1.59323463       7.96617313       8.76232545
W       -0.00000000       6.37293851      10.35552367
W        1.59323463       7.96617313      11.94873874
W        0.00000000       6.37293851      13.54195690
W        1.59323463       7.96617313      15.13512341
W       -0.00000000       6.37293851      16.72824439
W        1.59323463       7.96617313      18.32140151
W        0.00000000       6.37293851      19.91456100
W        1.59323463       7.96617313      21.50772269
W        0.00000000       6.37293851      23.10091978
W        1.59323463       7.96617313      24.69409217
W       -0.00000000       6.37293851      28.33850414
W        1.59323463       7.96617313      29.93167653
W        0.00000000       6.37293851      31.52487362
W        1.59323463       7.96617313      33.11803531
W       -0.00000000       6.37293851      34.71119480
W        1.59323463       7.96617313      36.30435192
W        0.00000000       6.37293851      37.89747291
W        1.59323463       7.96617313      39.49063941
W       -0.00000000       6.37293851      41.08385757
W        1.59323463       7.96617313      42.67707264
W        0.00000000       6.37293851      44.27027086
W        1.59323463       7.96617313      45.86345288
W       -0.00000000       6.37293851      47.45659437
W        1.59323463       7.96617313      49.04969649
W       -0.00000000       6.37293851      50.64285010
W        1.59323463       7.96617313      52.23602371
W        3.18646925      -0.00000000       0.79657260
W        4.77970388       1.59323463       2.38974621
W        3.18646925       0.00000000       3.98289982
W        4.77970388       1.59323463       5.57600194
W        3.18646925       0.00000000       7.16914343
W        4.77970388       1.59323463       8.76232545
W        3.18646925       0.00000000      10.35552367
W        4.77970388       1.59323463      11.94873874
W        3.18646925       0.00000000      13.54195690
W        4.77970388       1.59323463      15.13512341
W        3.18646925      -0.00000000      16.72824439
W        4.77970388       1.59323463      18.32140151
W        3.18646925      -0.00000000      19.91456100
W        4.77970388       1.59323463      21.50772269
W        3.18646925       0.00000000      23.10091978
W        4.77970388       1.59323463      24.69409217
W        3.18646925       0.00000000      28.33850414
W        4.77970388       1.59323463      29.93167653
W        3.18646925      -0.00000000      31.52487362
W        4.77970388       1.59323463      33.11803531
W        3.18646925       0.00000000      34.71119480
W        4.77970388       1.59323463      36.30435192
W        3.18646925      -0.00000000      37.89747291
W        4.77970388       1.59323463      39.49063941
W        3.18646925       0.00000000      41.08385757
W        4.77970388       1.59323463      42.67707264
W        3.18646925      -0.00000000      44.27027086
W        4.77970388       1.59323463      45.86345288
W        3.18646925       0.00000000      47.45659437
W        4.77970388       1.59323463      49.04969649
W        3.18646925       0.00000000      50.64285010
W        4.77970388       1.59323463      52.23602371
W        3.18646925       3.18646925       0.79657260
W        4.77970388       4.77970388       2.38974621
W        3.18646925       3.18646925       3.98289982
W        4.77970388       4.77970388       5.57600194
W        3.18646925       3.18646925       7.16914343
W        4.77970388       4.77970388       8.76232545
W        3.18646925       3.18646925      10.35552367
W        4.77970388       4.77970388      11.94873874
W        3.18646925       3.18646925      13.54195690
W        4.77970388       4.77970388      15.13512341
W        3.18646925       3.18646925      16.72824439
W        4.77970388       4.77970388      18.32140151
W        3.18646925       3.18646925      19.91456100
W        4.77970388       4.77970388      21.50772269
W        3.18646925       3.18646925      23.10091978
W        4.77970388       4.77970388      24.69409217
W        3.18646925       3.18646925      28.33850414
W        4.77970388       4.77970388      29.93167653
W        3.18646925       3.18646925      31.52487362
W        4.77970388       4.77970388      33.11803531
W        3.18646925       3.18646925      34.71119480
W        4.77970388       4.77970388      36.30435192
W        3.18646925       3.18646925      37.89747291
W        4.77970388       4.77970388      39.49063941
W        3.18646925       3.18646925      41.08385757
W        4.77970388       4.77970388      42.67707264
W        3.18646925       3.18646925      44.27027086
W        4.77970388       4.77970388      45.86345288
W        3.18646925       3.18646925      47.45659437
W        4.77970388       4.77970388      49.04969649
W        3.18646925       3.18646925      50.64285010
W        4.77970388       4.77970388      52.23602371
W        3.18646925       6.37293851       0.79657260
W        4.77970388       7.96617313       2.38974621
W        3.18646925       6.37293851       3.98289982
W        4.77970388       7.96617313       5.57600194
W        3.18646925       6.37293851       7.16914343
W        4.77970388       7.96617313       8.76232545
W        3.18646925       6.37293851      10.35552367
W        4.77970388       7.96617313      11.94873874
W        3.18646925       6.37293851      13.54195690
W        4.77970388       7.96617313      15.13512341
W        3.18646925       6.37293851      16.72824439
W        4.77970388       7.96617313      18.32140151
W        3.18646925       6.37293851      19.91456100
W        4.77970388       7.96617313      21.50772269
W        3.18646925       6.37293851      23.10091978
W        4.77970388       7.96617313      24.69409217
W        3.18646925       6.37293851      28.33850414
W        4.77970388       7.96617313      29.93167653
W        3.18646925       6.37293851      31.52487362
W        4.77970388       7.96617313      33.11803531
W        3.18646925       6.37293851      34.71119480
W        4.77970388       7.96617313      36.30435192
W        3.18646925       6.37293851      37.89747291
W        4.77970388       7.96617313      39.49063941
W        3.18646925       6.37293851      41.08385757
W        4.77970388       7.96617313      42.67707264
W        3.18646925       6.37293851      44.27027086
W        4.77970388       7.96617313      45.86345288
W        3.18646925       6.37293851      47.45659437
W        4.77970388       7.96617313      49.04969649
W        3.18646925       6.37293851      50.64285010
W        4.77970388       7.96617313      52.23602371
W        6.37293851       0.00000000       0.79657260
W        7.96617313       1.59323463       2.38974621
W        6.37293851       0.00000000       3.98289982
W        7.96617313       1.59323463       5.57600194
W        6.37293851       0.00000000       7.16914343
W        7.96617313       1.59323463       8.76232545
W        6.37293851      -0.00000000      10.35552367
W        7.96617313       1.59323463      11.94873874
W        6.37293851       0.00000000      13.54195690
W        7.96617313       1.59323463      15.13512341
W        6.37293851      -0.00000000      16.72824439
W        7.96617313       1.59323463      18.32140151
W        6.37293851      -0.00000000      19.91456100
W        7.96617313       1.59323463      21.50772269
W        6.37293851       0.00000000      23.10091978
W        7.96617313       1.59323463      24.69409217
W        6.37293851      -0.00000000      28.33850414
W        7.96617313       1.59323463      29.93167653
W        6.37293851       0.00000000      31.52487362
W        7.96617313       1.59323463      33.11803531
W        6.37293851      -0.00000000      34.71119480
W        7.96617313       1.59323463      36.30435192
W        6.37293851       0.00000000      37.89747291
W        7.96617313       1.59323463      39.49063941
W        6.37293851      -0.00000000      41.08385757
W        7.96617313       1.59323463      42.67707264
W        6.37293851      -0.00000000      44.27027086
W        7.96617313       1.59323463      45.86345288
W        6.37293851      -0.00000000      47.45659437
W        7.96617313       1.59323463      49.04969649
W        6.37293851       0.00000000      50.64285010
W        7.96617313       1.59323463      52.23602371
W        6.37293851       3.18646925       0.79657260
W        7.96617313       4.77970388       2.38974621
W        6.37293851       3.18646925       3.98289982
W        7.96617313       4.77970388       5.57600194
W        6.37293851       3.18646925       7.16914343
W        7.96617313       4.77970388       8.76232545
W        6.37293851       3.18646925      10.35552367
W        7.96617313       4.77970388      11.94873874
W        6.37293851       3.18646925      13.54195690
W        7.96617313       4.77970388      15.13512341
W        6.37293851       3.18646925      16.72824439
W        7.96617313       4.77970388      18.32140151
W        6.37293851       3.18646925      19.91456100
W        7.96617313       4.77970388      21.50772269
W        6.37293851       3.18646925      23.10091978
W        7.96617313       4.77970388      24.69409217
W        6.37293851       3.18646925      28.33850414
W        7.96617313       4.77970388      29.93167653
W        6.37293851       3.18646925      31.52487362
W        7.96617313       4.77970388      33.11803531
W        6.37293851       3.18646925      34.71119480
W        7.96617313       4.77970388      36.30435192
W        6.37293851       3.18646925      37.89747291
W        7.96617313       4.77970388      39.49063941
W        6.37293851       3.18646925      41.08385757
W        7.96617313       4.77970388      42.67707264
W        6.37293851       3.18646925      44.27027086
W        7.96617313       4.77970388      45.86345288
W        6.37293851       3.18646925      47.45659437
W        7.96617313       4.77970388      49.04969649
W        6.37293851       3.18646925      50.64285010
W        7.96617313       4.77970388      52.23602371
W        6.37293851       6.37293851       0.79657260
W        7.96617313       7.96617313       2.38974621
W        6.37293851       6.37293851       3.98289982
W        7.96617313       7.96617313       5.57600194
W        6.37293851       6.37293851       7.16914343
W        7.96617313       7.96617313       8.76232545
W        6.37293851       6.37293851      10.35552367
W        7.96617313       7.96617313      11.94873874
W        6.37293851       6.37293851      13.54195690
W        7.96617313       7.96617313      15.13512341
W        6.37293851       6.37293851      16.72824439
W        7.96617313       7.96617313      18.32140151
W        6.37293851       6.37293851      19.91456100
W        7.96617313       7.96617313      21.50772269
W        6.37293851       6.37293851      23.10091978
W        7.96617313       7.96617313      24.69409217
W        6.37293851       6.37293851      28.33850414
W        7.96617313       7.96617313      29.93167653
W        6.37293851       6.37293851      31.52487362
W        7.96617313       7.96617313      33.11803531
W        6.37293851       6.37293851      34.71119480
W        7.96617313       7.96617313      36.30435192
W        6.37293851       6.37293851      37.89747291
W        7.96617313       7.96617313      39.49063941
W        6.37293851       6.37293851      41.08385757
W        7.96617313       7.96617313      42.67707264
W        6.37293851       6.37293851      44.27027086
W        7.96617313       7.96617313      45.86345288
W        6.37293851       6.37293851      47.45659437
W        7.96617313       7.96617313      49.04969649
W        6.37293851       6.37293851      50.64285010
W        7.96617313       7.96617313      52.23602371
288
Lattice="9.559407760912599 1.5551574685670926e-18 -1.2681778328733722e-17 1.5551574685670926e-18 9.559407760912599 -3.802032394954696e-17 -6.226046143134533e-17 -1.9250595450418562e-16 53.13516041398639" Properties=species:S:1:pos:R:3 vacuum_gap_Ang=2.1538461538461537 frame_index=21 pbc="T T T"
W       -0.00000000       0.00000000       0.79657260
W        1.59323463       1.59323463       2.38974621
W       -0.00000000       0.00000000       3.98289982
W        1.59323463       1.59323463       5.57600194
W        0.00000000       0.00000000       7.16914343
W        1.59323463       1.59323463       8.76232545
W       -0.00000000      -0.00000000      10.35552367
W        1.59323463       1.59323463      11.94873874
W        0.00000000      -0.00000000      13.54195690
W        1.59323463       1.59323463      15.13512341
W        0.00000000       0.00000000      16.72824439
W        1.59323463       1.59323463      18.32140151
W        0.00000000       0.00000000      19.91456100
W        1.59323463       1.59323463      21.50772269
W       -0.00000000      -0.00000000      23.10091978
W        1.59323463       1.59323463      24.69409217
W        0.00000000       0.00000000      28.44106825
W        1.59323463       1.59323463      30.03424063
W        0.00000000      -0.00000000      31.62743772
W        1.59323463       1.59323463      33.22059941
W        0.00000000       0.00000000      34.81375890
W        1.59323463       1.59323463      36.40691603
W        0.00000000      -0.00000000      38.00003701
W        1.59323463       1.59323463      39.59320352
W       -0.00000000      -0.00000000      41.18642167
W        1.59323463       1.59323463      42.77963674
W        0.00000000      -0.00000000      44.37283496
W        1.59323463       1.59323463      45.96601698
W        0.00000000      -0.00000000      47.55915848
W        1.59323463       1.59323463      49.15226059
W       -0.00000000      -0.00000000      50.74541420
W        1.59323463       1.59323463      52.33858782
W       -0.00000000       3.18646925       0.79657260
W        1.59323463       4.77970388       2.38974621
W       -0.00000000       3.18646925       3.98289982
W        1.59323463       4.77970388       5.57600194
W        0.00000000       3.18646925       7.16914343
W        1.59323463       4.77970388       8.76232545
W        0.00000000       3.18646925      10.35552367
W        1.59323463       4.77970388      11.94873874
W       -0.00000000       3.18646925      13.54195690
W        1.59323463       4.77970388      15.13512341
W       -0.00000000       3.18646925      16.72824439
W        1.59323463       4.77970388      18.32140151
W        0.00000000       3.18646925      19.91456100
W        1.59323463       4.77970388      21.50772269
W        0.00000000       3.18646925      23.10091978
W        1.59323463       4.77970388      24.69409217
W        0.00000000       3.18646925      28.44106825
W        1.59323463       4.77970388      30.03424063
W       -0.00000000       3.18646925      31.62743772
W        1.59323463       4.77970388      33.22059941
W        0.00000000       3.18646925      34.81375890
W        1.59323463       4.77970388      36.40691603
W        0.00000000       3.18646925      38.00003701
W        1.59323463       4.77970388      39.59320352
W        0.00000000       3.18646925      41.18642167
W        1.59323463       4.77970388      42.77963674
W        0.00000000       3.18646925      44.37283496
W        1.59323463       4.77970388      45.96601698
W        0.00000000       3.18646925      47.55915848
W        1.59323463       4.77970388      49.15226059
W        0.00000000       3.18646925      50.74541420
W        1.59323463       4.77970388      52.33858782
W        0.00000000       6.37293851       0.79657260
W        1.59323463       7.96617313       2.38974621
W       -0.00000000       6.37293851       3.98289982
W        1.59323463       7.96617313       5.57600194
W        0.00000000       6.37293851       7.16914343
W        1.59323463       7.96617313       8.76232545
W       -0.00000000       6.37293851      10.35552367
W        1.59323463       7.96617313      11.94873874
W        0.00000000       6.37293851      13.54195690
W        1.59323463       7.96617313      15.13512341
W       -0.00000000       6.37293851      16.72824439
W        1.59323463       7.96617313      18.32140151
W        0.00000000       6.37293851      19.91456100
W        1.59323463       7.96617313      21.50772269
W        0.00000000       6.37293851      23.10091978
W        1.59323463       7.96617313      24.69409217
W       -0.00000000       6.37293851      28.44106825
W        1.59323463       7.96617313      30.03424063
W        0.00000000       6.37293851      31.62743772
W        1.59323463       7.96617313      33.22059941
W       -0.00000000       6.37293851      34.81375890
W        1.59323463       7.96617313      36.40691603
W        0.00000000       6.37293851      38.00003701
W        1.59323463       7.96617313      39.59320352
W       -0.00000000       6.37293851      41.18642167
W        1.59323463       7.96617313      42.77963674
W        0.00000000       6.37293851      44.37283496
W        1.59323463       7.96617313      45.96601698
W       -0.00000000       6.37293851      47.55915848
W        1.59323463       7.96617313      49.15226059
W       -0.00000000       6.37293851      50.74541420
W        1.59323463       7.96617313      52.33858782
W        3.18646925      -0.00000000       0.79657260
W        4.77970388       1.59323463       2.38974621
W        3.18646925       0.00000000       3.98289982
W        4.77970388       1.59323463       5.57600194
W        3.18646925       0.00000000       7.16914343
W        4.77970388       1.59323463       8.76232545
W        3.18646925       0.00000000      10.35552367
W        4.77970388       1.59323463      11.94873874
W        3.18646925       0.00000000      13.54195690
W        4.77970388       1.59323463      15.13512341
W        3.18646925      -0.00000000      16.72824439
W        4.77970388       1.59323463      18.32140151
W        3.18646925      -0.00000000      19.91456100
W        4.77970388       1.59323463      21.50772269
W        3.18646925       0.00000000      23.10091978
W        4.77970388       1.59323463      24.69409217
W        3.18646925       0.00000000      28.44106825
W        4.77970388       1.59323463      30.03424063
W        3.18646925      -0.00000000      31.62743772
W        4.77970388       1.59323463      33.22059941
W        3.18646925       0.00000000      34.81375890
W        4.77970388       1.59323463      36.40691603
W        3.18646925      -0.00000000      38.00003701
W        4.77970388       1.59323463      39.59320352
W        3.18646925       0.00000000      41.18642167
W        4.77970388       1.59323463      42.77963674
W        3.18646925      -0.00000000      44.37283496
W        4.77970388       1.59323463      45.96601698
W        3.18646925       0.00000000      47.55915848
W        4.77970388       1.59323463      49.15226059
W        3.18646925       0.00000000      50.74541420
W        4.77970388       1.59323463      52.33858782
W        3.18646925       3.18646925       0.79657260
W        4.77970388       4.77970388       2.38974621
W        3.18646925       3.18646925       3.98289982
W        4.77970388       4.77970388       5.57600194
W        3.18646925       3.18646925       7.16914343
W        4.77970388       4.77970388       8.76232545
W        3.18646925       3.18646925      10.35552367
W        4.77970388       4.77970388      11.94873874
W        3.18646925       3.18646925      13.54195690
W        4.77970388       4.77970388      15.13512341
W        3.18646925       3.18646925      16.72824439
W        4.77970388       4.77970388      18.32140151
W        3.18646925       3.18646925      19.91456100
W        4.77970388       4.77970388      21.50772269
W        3.18646925       3.18646925      23.10091978
W        4.77970388       4.77970388      24.69409217
W        3.18646925       3.18646925      28.44106825
W        4.77970388       4.77970388      30.03424063
W        3.18646925       3.18646925      31.62743772
W        4.77970388       4.77970388      33.22059941
W        3.18646925       3.18646925      34.81375890
W        4.77970388       4.77970388      36.40691603
W        3.18646925       3.18646925      38.00003701
W        4.77970388       4.77970388      39.59320352
W        3.18646925       3.18646925      41.18642167
W        4.77970388       4.77970388      42.77963674
W        3.18646925       3.18646925      44.37283496
W        4.77970388       4.77970388      45.96601698
W        3.18646925       3.18646925      47.55915848
W        4.77970388       4.77970388      49.15226059
W        3.18646925       3.18646925      50.74541420
W        4.77970388       4.77970388      52.33858782
W        3.18646925       6.37293851       0.79657260
W        4.77970388       7.96617313       2.38974621
W        3.18646925       6.37293851       3.98289982
W        4.77970388       7.96617313       5.57600194
W        3.18646925       6.37293851       7.16914343
W        4.77970388       7.96617313       8.76232545
W        3.18646925       6.37293851      10.35552367
W        4.77970388       7.96617313      11.94873874
W        3.18646925       6.37293851      13.54195690
W        4.77970388       7.96617313      15.13512341
W        3.18646925       6.37293851      16.72824439
W        4.77970388       7.96617313      18.32140151
W        3.18646925       6.37293851      19.91456100
W        4.77970388       7.96617313      21.50772269
W        3.18646925       6.37293851      23.10091978
W        4.77970388       7.96617313      24.69409217
W        3.18646925       6.37293851      28.44106825
W        4.77970388       7.96617313      30.03424063
W        3.18646925       6.37293851      31.62743772
W        4.77970388       7.96617313      33.22059941
W        3.18646925       6.37293851      34.81375890
W        4.77970388       7.96617313      36.40691603
W        3.18646925       6.37293851      38.00003701
W        4.77970388       7.96617313      39.59320352
W        3.18646925       6.37293851      41.18642167
W        4.77970388       7.96617313      42.77963674
W        3.18646925       6.37293851      44.37283496
W        4.77970388       7.96617313      45.96601698
W        3.18646925       6.37293851      47.55915848
W        4.77970388       7.96617313      49.15226059
W        3.18646925       6.37293851      50.74541420
W        4.77970388       7.96617313      52.33858782
W        6.37293851       0.00000000       0.79657260
W        7.96617313       1.59323463       2.38974621
W        6.37293851       0.00000000       3.98289982
W        7.96617313       1.59323463       5.57600194
W        6.37293851       0.00000000       7.16914343
W        7.96617313       1.59323463       8.76232545
W        6.37293851      -0.00000000      10.35552367
W        7.96617313       1.59323463      11.94873874
W        6.37293851       0.00000000      13.54195690
W        7.96617313       1.59323463      15.13512341
W        6.37293851      -0.00000000      16.72824439
W        7.96617313       1.59323463      18.32140151
W        6.37293851      -0.00000000      19.91456100
W        7.96617313       1.59323463      21.50772269
W        6.37293851       0.00000000      23.10091978
W        7.96617313       1.59323463      24.69409217
W        6.37293851      -0.00000000      28.44106825
W        7.96617313       1.59323463      30.03424063
W        6.37293851       0.00000000      31.62743772
W        7.96617313       1.59323463      33.22059941
W        6.37293851      -0.00000000      34.81375890
W        7.96617313       1.59323463      36.40691603
W        6.37293851       0.00000000      38.00003701
W        7.96617313       1.59323463      39.59320352
W        6.37293851      -0.00000000      41.18642167
W        7.96617313       1.59323463      42.77963674
W        6.37293851      -0.00000000      44.37283496
W        7.96617313       1.59323463      45.96601698
W        6.37293851      -0.00000000      47.55915848
W        7.96617313       1.59323463      49.15226059
W        6.37293851       0.00000000      50.74541420
W        7.96617313       1.59323463      52.33858782
W        6.37293851       3.18646925       0.79657260
W        7.96617313       4.77970388       2.38974621
W        6.37293851       3.18646925       3.98289982
W        7.96617313       4.77970388       5.57600194
W        6.37293851       3.18646925       7.16914343
W        7.96617313       4.77970388       8.76232545
W        6.37293851       3.18646925      10.35552367
W        7.96617313       4.77970388      11.94873874
W        6.37293851       3.18646925      13.54195690
W        7.96617313       4.77970388      15.13512341
W        6.37293851       3.18646925      16.72824439
W        7.96617313       4.77970388      18.32140151
W        6.37293851       3.18646925      19.91456100
W        7.96617313       4.77970388      21.50772269
W        6.37293851       3.18646925      23.10091978
W        7.96617313       4.77970388      24.69409217
W        6.37293851       3.18646925      28.44106825
W        7.96617313       4.77970388      30.03424063
W        6.37293851       3.18646925      31.62743772
W        7.96617313       4.77970388      33.22059941
W        6.37293851       3.18646925      34.81375890
W        7.96617313       4.77970388      36.40691603
W        6.37293851       3.18646925      38.00003701
W        7.96617313       4.77970388      39.59320352
W        6.37293851       3.18646925      41.18642167
W        7.96617313       4.77970388      42.77963674
W        6.37293851       3.18646925      44.37283496
W        7.96617313       4.77970388      45.96601698
W        6.37293851       3.18646925      47.55915848
W        7.96617313       4.77970388      49.15226059
W        6.37293851       3.18646925      50.74541420
W        7.96617313       4.77970388      52.33858782
W        6.37293851       6.37293851       0.79657260
W        7.96617313       7.96617313       2.38974621
W        6.37293851       6.37293851       3.98289982
W        7.96617313       7.96617313       5.57600194
W        6.37293851       6.37293851       7.16914343
W        7.96617313       7.96617313       8.76232545
W        6.37293851       6.37293851      10.35552367
W        7.96617313       7.96617313      11.94873874
W        6.37293851       6.37293851      13.54195690
W        7.96617313       7.96617313      15.13512341
W        6.37293851       6.37293851      16.72824439
W        7.96617313       7.96617313      18.32140151
W        6.37293851       6.37293851      19.91456100
W        7.96617313       7.96617313      21.50772269
W        6.37293851       6.37293851      23.10091978
W        7.96617313       7.96617313      24.69409217
W        6.37293851       6.37293851      28.44106825
W        7.96617313       7.96617313      30.03424063
W        6.37293851       6.37293851      31.62743772
W        7.96617313       7.96617313      33.22059941
W        6.37293851       6.37293851      34.81375890
W        7.96617313       7.96617313      36.40691603
W        6.37293851       6.37293851      38.00003701
W        7.96617313       7.96617313      39.59320352
W        6.37293851       6.37293851      41.18642167
W        7.96617313       7.96617313      42.77963674
W        6.37293851       6.37293851      44.37283496
W        7.96617313       7.96617313      45.96601698
W        6.37293851       6.37293851      47.55915848
W        7.96617313       7.96617313      49.15226059
W        6.37293851       6.37293851      50.74541420
W        7.96617313       7.96617313      52.33858782
288
Lattice="9.559407760912599 1.5551574685670926e-18 -1.2681778328733722e-17 1.5551574685670926e-18 9.559407760912599 -3.802032394954696e-17 -6.226046143134533e-17 -1.9250595450418562e-16 53.23772451655049" Properties=species:S:1:pos:R:3 vacuum_gap_Ang=2.2564102564102564 frame_index=22 pbc="T T T"
W       -0.00000000       0.00000000       0.79657260
W        1.59323463       1.59323463       2.38974621
W       -0.00000000       0.00000000       3.98289982
W        1.59323463       1.59323463       5.57600194
W        0.00000000       0.00000000       7.16914343
W        1.59323463       1.59323463       8.76232545
W       -0.00000000      -0.00000000      10.35552367
W        1.59323463       1.59323463      11.94873874
W        0.00000000      -0.00000000      13.54195690
W        1.59323463       1.59323463      15.13512341
W        0.00000000       0.00000000      16.72824439
W        1.59323463       1.59323463      18.32140151
W        0.00000000       0.00000000      19.91456100
W        1.59323463       1.59323463      21.50772269
W       -0.00000000      -0.00000000      23.10091978
W        1.59323463       1.59323463      24.69409217
W        0.00000000       0.00000000      28.54363235
W        1.59323463       1.59323463      30.13680473
W        0.00000000      -0.00000000      31.73000182
W        1.59323463       1.59323463      33.32316351
W        0.00000000       0.00000000      34.91632300
W        1.59323463       1.59323463      36.50948013
W        0.00000000      -0.00000000      38.10260111
W        1.59323463       1.59323463      39.69576762
W       -0.00000000      -0.00000000      41.28898577
W        1.59323463       1.59323463      42.88220084
W        0.00000000      -0.00000000      44.47539906
W        1.59323463       1.59323463      46.06858108
W        0.00000000      -0.00000000      47.66172258
W        1.59323463       1.59323463      49.25482470
W       -0.00000000      -0.00000000      50.84797830
W        1.59323463       1.59323463      52.44115192
W       -0.00000000       3.18646925       0.79657260
W        1.59323463       4.77970388       2.38974621
W       -0.00000000       3.18646925       3.98289982
W        1.59323463       4.77970388       5.57600194
W        0.00000000       3.18646925       7.16914343
W        1.59323463       4.77970388       8.76232545
W        0.00000000       3.18646925      10.35552367
W        1.59323463       4.77970388      11.94873874
W       -0.00000000       3.18646925      13.54195690
W        1.59323463       4.77970388      15.13512341
W       -0.00000000       3.18646925      16.72824439
W        1.59323463       4.77970388      18.32140151
W        0.00000000       3.18646925      19.91456100
W        1.59323463       4.77970388      21.50772269
W        0.00000000       3.18646925      23.10091978
W        1.59323463       4.77970388      24.69409217
W        0.00000000       3.18646925      28.54363235
W        1.59323463       4.77970388      30.13680473
W       -0.00000000       3.18646925      31.73000182
W        1.59323463       4.77970388      33.32316351
W        0.00000000       3.18646925      34.91632300
W        1.59323463       4.77970388      36.50948013
W        0.00000000       3.18646925      38.10260111
W        1.59323463       4.77970388      39.69576762
W        0.00000000       3.18646925      41.28898577
W        1.59323463       4.77970388      42.88220084
W        0.00000000       3.18646925      44.47539906
W        1.59323463       4.77970388      46.06858108
W        0.00000000       3.18646925      47.66172258
W        1.59323463       4.77970388      49.25482470
W        0.00000000       3.18646925      50.84797830
W        1.59323463       4.77970388      52.44115192
W        0.00000000       6.37293851       0.79657260
W        1.59323463       7.96617313       2.38974621
W       -0.00000000       6.37293851       3.98289982
W        1.59323463       7.96617313       5.57600194
W        0.00000000       6.37293851       7.16914343
W        1.59323463       7.96617313       8.76232545
W       -0.00000000       6.37293851      10.35552367
W        1.59323463       7.96617313      11.94873874
W        0.00000000       6.37293851      13.54195690
W        1.59323463       7.96617313      15.13512341
W       -0.00000000       6.37293851      16.72824439
W        1.59323463       7.96617313      18.32140151
W        0.00000000       6.37293851      19.91456100
W        1.59323463       7.96617313      21.50772269
W        0.00000000       6.37293851      23.10091978
W        1.59323463       7.96617313      24.69409217
W       -0.00000000       6.37293851      28.54363235
W        1.59323463       7.96617313      30.13680473
W        0.00000000       6.37293851      31.73000182
W        1.59323463       7.96617313      33.32316351
W       -0.00000000       6.37293851      34.91632300
W        1.59323463       7.96617313      36.50948013
W        0.00000000       6.37293851      38.10260111
W        1.59323463       7.96617313      39.69576762
W       -0.00000000       6.37293851      41.28898577
W        1.59323463       7.96617313      42.88220084
W        0.00000000       6.37293851      44.47539906
W        1.59323463       7.96617313      46.06858108
W       -0.00000000       6.37293851      47.66172258
W        1.59323463       7.96617313      49.25482470
W       -0.00000000       6.37293851      50.84797830
W        1.59323463       7.96617313      52.44115192
W        3.18646925      -0.00000000       0.79657260
W        4.77970388       1.59323463       2.38974621
W        3.18646925       0.00000000       3.98289982
W        4.77970388       1.59323463       5.57600194
W        3.18646925       0.00000000       7.16914343
W        4.77970388       1.59323463       8.76232545
W        3.18646925       0.00000000      10.35552367
W        4.77970388       1.59323463      11.94873874
W        3.18646925       0.00000000      13.54195690
W        4.77970388       1.59323463      15.13512341
W        3.18646925      -0.00000000      16.72824439
W        4.77970388       1.59323463      18.32140151
W        3.18646925      -0.00000000      19.91456100
W        4.77970388       1.59323463      21.50772269
W        3.18646925       0.00000000      23.10091978
W        4.77970388       1.59323463      24.69409217
W        3.18646925       0.00000000      28.54363235
W        4.77970388       1.59323463      30.13680473
W        3.18646925      -0.00000000      31.73000182
W        4.77970388       1.59323463      33.32316351
W        3.18646925       0.00000000      34.91632300
W        4.77970388       1.59323463      36.50948013
W        3.18646925      -0.00000000      38.10260111
W        4.77970388       1.59323463      39.69576762
W        3.18646925       0.00000000      41.28898577
W        4.77970388       1.59323463      42.88220084
W        3.18646925      -0.00000000      44.47539906
W        4.77970388       1.59323463      46.06858108
W        3.18646925       0.00000000      47.66172258
W        4.77970388       1.59323463      49.25482470
W        3.18646925       0.00000000      50.84797830
W        4.77970388       1.59323463      52.44115192
W        3.18646925       3.18646925       0.79657260
W        4.77970388       4.77970388       2.38974621
W        3.18646925       3.18646925       3.98289982
W        4.77970388       4.77970388       5.57600194
W        3.18646925       3.18646925       7.16914343
W        4.77970388       4.77970388       8.76232545
W        3.18646925       3.18646925      10.35552367
W        4.77970388       4.77970388      11.94873874
W        3.18646925       3.18646925      13.54195690
W        4.77970388       4.77970388      15.13512341
W        3.18646925       3.18646925      16.72824439
W        4.77970388       4.77970388      18.32140151
W        3.18646925       3.18646925      19.91456100
W        4.77970388       4.77970388      21.50772269
W        3.18646925       3.18646925      23.10091978
W        4.77970388       4.77970388      24.69409217
W        3.18646925       3.18646925      28.54363235
W        4.77970388       4.77970388      30.13680473
W        3.18646925       3.18646925      31.73000182
W        4.77970388       4.77970388      33.32316351
W        3.18646925       3.18646925      34.91632300
W        4.77970388       4.77970388      36.50948013
W        3.18646925       3.18646925      38.10260111
W        4.77970388       4.77970388      39.69576762
W        3.18646925       3.18646925      41.28898577
W        4.77970388       4.77970388      42.88220084
W        3.18646925       3.18646925      44.47539906
W        4.77970388       4.77970388      46.06858108
W        3.18646925       3.18646925      47.66172258
W        4.77970388       4.77970388      49.25482470
W        3.18646925       3.18646925      50.84797830
W        4.77970388       4.77970388      52.44115192
W        3.18646925       6.37293851       0.79657260
W        4.77970388       7.96617313       2.38974621
W        3.18646925       6.37293851       3.98289982
W        4.77970388       7.96617313       5.57600194
W        3.18646925       6.37293851       7.16914343
W        4.77970388       7.96617313       8.76232545
W        3.18646925       6.37293851      10.35552367
W        4.77970388       7.96617313      11.94873874
W        3.18646925       6.37293851      13.54195690
W        4.77970388       7.96617313      15.13512341
W        3.18646925       6.37293851      16.72824439
W        4.77970388       7.96617313      18.32140151
W        3.18646925       6.37293851      19.91456100
W        4.77970388       7.96617313      21.50772269
W        3.18646925       6.37293851      23.10091978
W        4.77970388       7.96617313      24.69409217
W        3.18646925       6.37293851      28.54363235
W        4.77970388       7.96617313      30.13680473
W        3.18646925       6.37293851      31.73000182
W        4.77970388       7.96617313      33.32316351
W        3.18646925       6.37293851      34.91632300
W        4.77970388       7.96617313      36.50948013
W        3.18646925       6.37293851      38.10260111
W        4.77970388       7.96617313      39.69576762
W        3.18646925       6.37293851      41.28898577
W        4.77970388       7.96617313      42.88220084
W        3.18646925       6.37293851      44.47539906
W        4.77970388       7.96617313      46.06858108
W        3.18646925       6.37293851      47.66172258
W        4.77970388       7.96617313      49.25482470
W        3.18646925       6.37293851      50.84797830
W        4.77970388       7.96617313      52.44115192
W        6.37293851       0.00000000       0.79657260
W        7.96617313       1.59323463       2.38974621
W        6.37293851       0.00000000       3.98289982
W        7.96617313       1.59323463       5.57600194
W        6.37293851       0.00000000       7.16914343
W        7.96617313       1.59323463       8.76232545
W        6.37293851      -0.00000000      10.35552367
W        7.96617313       1.59323463      11.94873874
W        6.37293851       0.00000000      13.54195690
W        7.96617313       1.59323463      15.13512341
W        6.37293851      -0.00000000      16.72824439
W        7.96617313       1.59323463      18.32140151
W        6.37293851      -0.00000000      19.91456100
W        7.96617313       1.59323463      21.50772269
W        6.37293851       0.00000000      23.10091978
W        7.96617313       1.59323463      24.69409217
W        6.37293851      -0.00000000      28.54363235
W        7.96617313       1.59323463      30.13680473
W        6.37293851       0.00000000      31.73000182
W        7.96617313       1.59323463      33.32316351
W        6.37293851      -0.00000000      34.91632300
W        7.96617313       1.59323463      36.50948013
W        6.37293851       0.00000000      38.10260111
W        7.96617313       1.59323463      39.69576762
W        6.37293851      -0.00000000      41.28898577
W        7.96617313       1.59323463      42.88220084
W        6.37293851      -0.00000000      44.47539906
W        7.96617313       1.59323463      46.06858108
W        6.37293851      -0.00000000      47.66172258
W        7.96617313       1.59323463      49.25482470
W        6.37293851       0.00000000      50.84797830
W        7.96617313       1.59323463      52.44115192
W        6.37293851       3.18646925       0.79657260
W        7.96617313       4.77970388       2.38974621
W        6.37293851       3.18646925       3.98289982
W        7.96617313       4.77970388       5.57600194
W        6.37293851       3.18646925       7.16914343
W        7.96617313       4.77970388       8.76232545
W        6.37293851       3.18646925      10.35552367
W        7.96617313       4.77970388      11.94873874
W        6.37293851       3.18646925      13.54195690
W        7.96617313       4.77970388      15.13512341
W        6.37293851       3.18646925      16.72824439
W        7.96617313       4.77970388      18.32140151
W        6.37293851       3.18646925      19.91456100
W        7.96617313       4.77970388      21.50772269
W        6.37293851       3.18646925      23.10091978
W        7.96617313       4.77970388      24.69409217
W        6.37293851       3.18646925      28.54363235
W        7.96617313       4.77970388      30.13680473
W        6.37293851       3.18646925      31.73000182
W        7.96617313       4.77970388      33.32316351
W        6.37293851       3.18646925      34.91632300
W        7.96617313       4.77970388      36.50948013
W        6.37293851       3.18646925      38.10260111
W        7.96617313       4.77970388      39.69576762
W        6.37293851       3.18646925      41.28898577
W        7.96617313       4.77970388      42.88220084
W        6.37293851       3.18646925      44.47539906
W        7.96617313       4.77970388      46.06858108
W        6.37293851       3.18646925      47.66172258
W        7.96617313       4.77970388      49.25482470
W        6.37293851       3.18646925      50.84797830
W        7.96617313       4.77970388      52.44115192
W        6.37293851       6.37293851       0.79657260
W        7.96617313       7.96617313       2.38974621
W        6.37293851       6.37293851       3.98289982
W        7.96617313       7.96617313       5.57600194
W        6.37293851       6.37293851       7.16914343
W        7.96617313       7.96617313       8.76232545
W        6.37293851       6.37293851      10.35552367
W        7.96617313       7.96617313      11.94873874
W        6.37293851       6.37293851      13.54195690
W        7.96617313       7.96617313      15.13512341
W        6.37293851       6.37293851      16.72824439
W        7.96617313       7.96617313      18.32140151
W        6.37293851       6.37293851      19.91456100
W        7.96617313       7.96617313      21.50772269
W        6.37293851       6.37293851      23.10091978
W        7.96617313       7.96617313      24.69409217
W        6.37293851       6.37293851      28.54363235
W        7.96617313       7.96617313      30.13680473
W        6.37293851       6.37293851      31.73000182
W        7.96617313       7.96617313      33.32316351
W        6.37293851       6.37293851      34.91632300
W        7.96617313       7.96617313      36.50948013
W        6.37293851       6.37293851      38.10260111
W        7.96617313       7.96617313      39.69576762
W        6.37293851       6.37293851      41.28898577
W        7.96617313       7.96617313      42.88220084
W        6.37293851       6.37293851      44.47539906
W        7.96617313       7.96617313      46.06858108
W        6.37293851       6.37293851      47.66172258
W        7.96617313       7.96617313      49.25482470
W        6.37293851       6.37293851      50.84797830
W        7.96617313       7.96617313      52.44115192
288
Lattice="9.559407760912599 1.5551574685670926e-18 -1.2681778328733722e-17 1.5551574685670926e-18 9.559407760912599 -3.802032394954696e-17 -6.226046143134533e-17 -1.9250595450418562e-16 53.340288619114595" Properties=species:S:1:pos:R:3 vacuum_gap_Ang=2.358974358974359 frame_index=23 pbc="T T T"
W       -0.00000000       0.00000000       0.79657260
W        1.59323463       1.59323463       2.38974621
W       -0.00000000       0.00000000       3.98289982
W        1.59323463       1.59323463       5.57600194
W        0.00000000       0.00000000       7.16914343
W        1.59323463       1.59323463       8.76232545
W       -0.00000000      -0.00000000      10.35552367
W        1.59323463       1.59323463      11.94873874
W        0.00000000      -0.00000000      13.54195690
W        1.59323463       1.59323463      15.13512341
W        0.00000000       0.00000000      16.72824439
W        1.59323463       1.59323463      18.32140151
W        0.00000000       0.00000000      19.91456100
W        1.59323463       1.59323463      21.50772269
W       -0.00000000      -0.00000000      23.10091978
W        1.59323463       1.59323463      24.69409217
W        0.00000000       0.00000000      28.64619645
W        1.59323463       1.59323463      30.23936883
W        0.00000000      -0.00000000      31.83256593
W        1.59323463       1.59323463      33.42572761
W        0.00000000       0.00000000      35.01888711
W        1.59323463       1.59323463      36.61204423
W        0.00000000      -0.00000000      38.20516521
W        1.59323463       1.59323463      39.79833172
W       -0.00000000      -0.00000000      41.39154988
W        1.59323463       1.59323463      42.98476494
W        0.00000000      -0.00000000      44.57796316
W        1.59323463       1.59323463      46.17114519
W        0.00000000      -0.00000000      47.76428668
W        1.59323463       1.59323463      49.35738880
W       -0.00000000      -0.00000000      50.95054241
W        1.59323463       1.59323463      52.54371602
W       -0.00000000       3.18646925       0.79657260
W        1.59323463       4.77970388       2.38974621
W       -0.00000000       3.18646925       3.98289982
W        1.59323463       4.77970388       5.57600194
W        0.00000000       3.18646925       7.16914343
W        1.59323463       4.77970388       8.76232545
W        0.00000000       3.18646925      10.35552367
W        1.59323463       4.77970388      11.94873874
W       -0.00000000       3.18646925      13.54195690
W        1.59323463       4.77970388      15.13512341
W       -0.00000000       3.18646925      16.72824439
W        1.59323463       4.77970388      18.32140151
W        0.00000000       3.18646925      19.91456100
W        1.59323463       4.77970388      21.50772269
W        0.00000000       3.18646925      23.10091978
W        1.59323463       4.77970388      24.69409217
W        0.00000000       3.18646925      28.64619645
W        1.59323463       4.77970388      30.23936883
W       -0.00000000       3.18646925      31.83256593
W        1.59323463       4.77970388      33.42572761
W        0.00000000       3.18646925      35.01888711
W        1.59323463       4.77970388      36.61204423
W        0.00000000       3.18646925      38.20516521
W        1.59323463       4.77970388      39.79833172
W        0.00000000       3.18646925      41.39154988
W        1.59323463       4.77970388      42.98476494
W        0.00000000       3.18646925      44.57796316
W        1.59323463       4.77970388      46.17114519
W        0.00000000       3.18646925      47.76428668
W        1.59323463       4.77970388      49.35738880
W        0.00000000       3.18646925      50.95054241
W        1.59323463       4.77970388      52.54371602
W        0.00000000       6.37293851       0.79657260
W        1.59323463       7.96617313       2.38974621
W       -0.00000000       6.37293851       3.98289982
W        1.59323463       7.96617313       5.57600194
W        0.00000000       6.37293851       7.16914343
W        1.59323463       7.96617313       8.76232545
W       -0.00000000       6.37293851      10.35552367
W        1.59323463       7.96617313      11.94873874
W        0.00000000       6.37293851      13.54195690
W        1.59323463       7.96617313      15.13512341
W       -0.00000000       6.37293851      16.72824439
W        1.59323463       7.96617313      18.32140151
W        0.00000000       6.37293851      19.91456100
W        1.59323463       7.96617313      21.50772269
W        0.00000000       6.37293851      23.10091978
W        1.59323463       7.96617313      24.69409217
W       -0.00000000       6.37293851      28.64619645
W        1.59323463       7.96617313      30.23936883
W        0.00000000       6.37293851      31.83256593
W        1.59323463       7.96617313      33.42572761
W       -0.00000000       6.37293851      35.01888711
W        1.59323463       7.96617313      36.61204423
W        0.00000000       6.37293851      38.20516521
W        1.59323463       7.96617313      39.79833172
W       -0.00000000       6.37293851      41.39154988
W        1.59323463       7.96617313      42.98476494
W        0.00000000       6.37293851      44.57796316
W        1.59323463       7.96617313      46.17114519
W       -0.00000000       6.37293851      47.76428668
W        1.59323463       7.96617313      49.35738880
W       -0.00000000       6.37293851      50.95054241
W        1.59323463       7.96617313      52.54371602
W        3.18646925      -0.00000000       0.79657260
W        4.77970388       1.59323463       2.38974621
W        3.18646925       0.00000000       3.98289982
W        4.77970388       1.59323463       5.57600194
W        3.18646925       0.00000000       7.16914343
W        4.77970388       1.59323463       8.76232545
W        3.18646925       0.00000000      10.35552367
W        4.77970388       1.59323463      11.94873874
W        3.18646925       0.00000000      13.54195690
W        4.77970388       1.59323463      15.13512341
W        3.18646925      -0.00000000      16.72824439
W        4.77970388       1.59323463      18.32140151
W        3.18646925      -0.00000000      19.91456100
W        4.77970388       1.59323463      21.50772269
W        3.18646925       0.00000000      23.10091978
W        4.77970388       1.59323463      24.69409217
W        3.18646925       0.00000000      28.64619645
W        4.77970388       1.59323463      30.23936883
W        3.18646925      -0.00000000      31.83256593
W        4.77970388       1.59323463      33.42572761
W        3.18646925       0.00000000      35.01888711
W        4.77970388       1.59323463      36.61204423
W        3.18646925      -0.00000000      38.20516521
W        4.77970388       1.59323463      39.79833172
W        3.18646925       0.00000000      41.39154988
W        4.77970388       1.59323463      42.98476494
W        3.18646925      -0.00000000      44.57796316
W        4.77970388       1.59323463      46.17114519
W        3.18646925       0.00000000      47.76428668
W        4.77970388       1.59323463      49.35738880
W        3.18646925       0.00000000      50.95054241
W        4.77970388       1.59323463      52.54371602
W        3.18646925       3.18646925       0.79657260
W        4.77970388       4.77970388       2.38974621
W        3.18646925       3.18646925       3.98289982
W        4.77970388       4.77970388       5.57600194
W        3.18646925       3.18646925       7.16914343
W        4.77970388       4.77970388       8.76232545
W        3.18646925       3.18646925      10.35552367
W        4.77970388       4.77970388      11.94873874
W        3.18646925       3.18646925      13.54195690
W        4.77970388       4.77970388      15.13512341
W        3.18646925       3.18646925      16.72824439
W        4.77970388       4.77970388      18.32140151
W        3.18646925       3.18646925      19.91456100
W        4.77970388       4.77970388      21.50772269
W        3.18646925       3.18646925      23.10091978
W        4.77970388       4.77970388      24.69409217
W        3.18646925       3.18646925      28.64619645
W        4.77970388       4.77970388      30.23936883
W        3.18646925       3.18646925      31.83256593
W        4.77970388       4.77970388      33.42572761
W        3.18646925       3.18646925      35.01888711
W        4.77970388       4.77970388      36.61204423
W        3.18646925       3.18646925      38.20516521
W        4.77970388       4.77970388      39.79833172
W        3.18646925       3.18646925      41.39154988
W        4.77970388       4.77970388      42.98476494
W        3.18646925       3.18646925      44.57796316
W        4.77970388       4.77970388      46.17114519
W        3.18646925       3.18646925      47.76428668
W        4.77970388       4.77970388      49.35738880
W        3.18646925       3.18646925      50.95054241
W        4.77970388       4.77970388      52.54371602
W        3.18646925       6.37293851       0.79657260
W        4.77970388       7.96617313       2.38974621
W        3.18646925       6.37293851       3.98289982
W        4.77970388       7.96617313       5.57600194
W        3.18646925       6.37293851       7.16914343
W        4.77970388       7.96617313       8.76232545
W        3.18646925       6.37293851      10.35552367
W        4.77970388       7.96617313      11.94873874
W        3.18646925       6.37293851      13.54195690
W        4.77970388       7.96617313      15.13512341
W        3.18646925       6.37293851      16.72824439
W        4.77970388       7.96617313      18.32140151
W        3.18646925       6.37293851      19.91456100
W        4.77970388       7.96617313      21.50772269
W        3.18646925       6.37293851      23.10091978
W        4.77970388       7.96617313      24.69409217
W        3.18646925       6.37293851      28.64619645
W        4.77970388       7.96617313      30.23936883
W        3.18646925       6.37293851      31.83256593
W        4.77970388       7.96617313      33.42572761
W        3.18646925       6.37293851      35.01888711
W        4.77970388       7.96617313      36.61204423
W        3.18646925       6.37293851      38.20516521
W        4.77970388       7.96617313      39.79833172
W        3.18646925       6.37293851      41.39154988
W        4.77970388       7.96617313      42.98476494
W        3.18646925       6.37293851      44.57796316
W        4.77970388       7.96617313      46.17114519
W        3.18646925       6.37293851      47.76428668
W        4.77970388       7.96617313      49.35738880
W        3.18646925       6.37293851      50.95054241
W        4.77970388       7.96617313      52.54371602
W        6.37293851       0.00000000       0.79657260
W        7.96617313       1.59323463       2.38974621
W        6.37293851       0.00000000       3.98289982
W        7.96617313       1.59323463       5.57600194
W        6.37293851       0.00000000       7.16914343
W        7.96617313       1.59323463       8.76232545
W        6.37293851      -0.00000000      10.35552367
W        7.96617313       1.59323463      11.94873874
W        6.37293851       0.00000000      13.54195690
W        7.96617313       1.59323463      15.13512341
W        6.37293851      -0.00000000      16.72824439
W        7.96617313       1.59323463      18.32140151
W        6.37293851      -0.00000000      19.91456100
W        7.96617313       1.59323463      21.50772269
W        6.37293851       0.00000000      23.10091978
W        7.96617313       1.59323463      24.69409217
W        6.37293851      -0.00000000      28.64619645
W        7.96617313       1.59323463      30.23936883
W        6.37293851       0.00000000      31.83256593
W        7.96617313       1.59323463      33.42572761
W        6.37293851      -0.00000000      35.01888711
W        7.96617313       1.59323463      36.61204423
W        6.37293851       0.00000000      38.20516521
W        7.96617313       1.59323463      39.79833172
W        6.37293851      -0.00000000      41.39154988
W        7.96617313       1.59323463      42.98476494
W        6.37293851      -0.00000000      44.57796316
W        7.96617313       1.59323463      46.17114519
W        6.37293851      -0.00000000      47.76428668
W        7.96617313       1.59323463      49.35738880
W        6.37293851       0.00000000      50.95054241
W        7.96617313       1.59323463      52.54371602
W        6.37293851       3.18646925       0.79657260
W        7.96617313       4.77970388       2.38974621
W        6.37293851       3.18646925       3.98289982
W        7.96617313       4.77970388       5.57600194
W        6.37293851       3.18646925       7.16914343
W        7.96617313       4.77970388       8.76232545
W        6.37293851       3.18646925      10.35552367
W        7.96617313       4.77970388      11.94873874
W        6.37293851       3.18646925      13.54195690
W        7.96617313       4.77970388      15.13512341
W        6.37293851       3.18646925      16.72824439
W        7.96617313       4.77970388      18.32140151
W        6.37293851       3.18646925      19.91456100
W        7.96617313       4.77970388      21.50772269
W        6.37293851       3.18646925      23.10091978
W        7.96617313       4.77970388      24.69409217
W        6.37293851       3.18646925      28.64619645
W        7.96617313       4.77970388      30.23936883
W        6.37293851       3.18646925      31.83256593
W        7.96617313       4.77970388      33.42572761
W        6.37293851       3.18646925      35.01888711
W        7.96617313       4.77970388      36.61204423
W        6.37293851       3.18646925      38.20516521
W        7.96617313       4.77970388      39.79833172
W        6.37293851       3.18646925      41.39154988
W        7.96617313       4.77970388      42.98476494
W        6.37293851       3.18646925      44.57796316
W        7.96617313       4.77970388      46.17114519
W        6.37293851       3.18646925      47.76428668
W        7.96617313       4.77970388      49.35738880
W        6.37293851       3.18646925      50.95054241
W        7.96617313       4.77970388      52.54371602
W        6.37293851       6.37293851       0.79657260
W        7.96617313       7.96617313       2.38974621
W        6.37293851       6.37293851       3.98289982
W        7.96617313       7.96617313       5.57600194
W        6.37293851       6.37293851       7.16914343
W        7.96617313       7.96617313       8.76232545
W        6.37293851       6.37293851      10.35552367
W        7.96617313       7.96617313      11.94873874
W        6.37293851       6.37293851      13.54195690
W        7.96617313       7.96617313      15.13512341
W        6.37293851       6.37293851      16.72824439
W        7.96617313       7.96617313      18.32140151
W        6.37293851       6.37293851      19.91456100
W        7.96617313       7.96617313      21.50772269
W        6.37293851       6.37293851      23.10091978
W        7.96617313       7.96617313      24.69409217
W        6.37293851       6.37293851      28.64619645
W        7.96617313       7.96617313      30.23936883
W        6.37293851       6.37293851      31.83256593
W        7.96617313       7.96617313      33.42572761
W        6.37293851       6.37293851      35.01888711
W        7.96617313       7.96617313      36.61204423
W        6.37293851       6.37293851      38.20516521
W        7.96617313       7.96617313      39.79833172
W        6.37293851       6.37293851      41.39154988
W        7.96617313       7.96617313      42.98476494
W        6.37293851       6.37293851      44.57796316
W        7.96617313       7.96617313      46.17114519
W        6.37293851       6.37293851      47.76428668
W        7.96617313       7.96617313      49.35738880
W        6.37293851       6.37293851      50.95054241
W        7.96617313       7.96617313      52.54371602
288
Lattice="9.559407760912599 1.5551574685670926e-18 -1.2681778328733722e-17 1.5551574685670926e-18 9.559407760912599 -3.802032394954696e-17 -6.226046143134533e-17 -1.9250595450418562e-16 53.4428527216787" Properties=species:S:1:pos:R:3 vacuum_gap_Ang=2.4615384615384617 frame_index=24 pbc="T T T"
W       -0.00000000       0.00000000       0.79657260
W        1.59323463       1.59323463       2.38974621
W       -0.00000000       0.00000000       3.98289982
W        1.59323463       1.59323463       5.57600194
W        0.00000000       0.00000000       7.16914343
W        1.59323463       1.59323463       8.76232545
W       -0.00000000      -0.00000000      10.35552367
W        1.59323463       1.59323463      11.94873874
W        0.00000000      -0.00000000      13.54195690
W        1.59323463       1.59323463      15.13512341
W        0.00000000       0.00000000      16.72824439
W        1.59323463       1.59323463      18.32140151
W        0.00000000       0.00000000      19.91456100
W        1.59323463       1.59323463      21.50772269
W       -0.00000000      -0.00000000      23.10091978
W        1.59323463       1.59323463      24.69409217
W        0.00000000       0.00000000      28.74876055
W        1.59323463       1.59323463      30.34193294
W        0.00000000      -0.00000000      31.93513003
W        1.59323463       1.59323463      33.52829172
W        0.00000000       0.00000000      35.12145121
W        1.59323463       1.59323463      36.71460833
W        0.00000000      -0.00000000      38.30772932
W        1.59323463       1.59323463      39.90089582
W       -0.00000000      -0.00000000      41.49411398
W        1.59323463       1.59323463      43.08732905
W        0.00000000      -0.00000000      44.68052727
W        1.59323463       1.59323463      46.27370929
W        0.00000000      -0.00000000      47.86685078
W        1.59323463       1.59323463      49.45995290
W       -0.00000000      -0.00000000      51.05310651
W        1.59323463       1.59323463      52.64628012
W       -0.00000000       3.18646925       0.79657260
W        1.59323463       4.77970388       2.38974621
W       -0.00000000       3.18646925       3.98289982
W        1.59323463       4.77970388       5.57600194
W        0.00000000       3.18646925       7.16914343
W        1.59323463       4.77970388       8.76232545
W        0.00000000       3.18646925      10.35552367
W        1.59323463       4.77970388      11.94873874
W       -0.00000000       3.18646925      13.54195690
W        1.59323463       4.77970388      15.13512341
W       -0.00000000       3.18646925      16.72824439
W        1.59323463       4.77970388      18.32140151
W        0.00000000       3.18646925      19.91456100
W        1.59323463       4.77970388      21.50772269
W        0.00000000       3.18646925      23.10091978
W        1.59323463       4.77970388      24.69409217
W        0.00000000       3.18646925      28.74876055
W        1.59323463       4.77970388      30.34193294
W       -0.00000000       3.18646925      31.93513003
W        1.59323463       4.77970388      33.52829172
W        0.00000000       3.18646925      35.12145121
W        1.59323463       4.77970388      36.71460833
W        0.00000000       3.18646925      38.30772932
W        1.59323463       4.77970388      39.90089582
W        0.00000000       3.18646925      41.49411398
W        1.59323463       4.77970388      43.08732905
W        0.00000000       3.18646925      44.68052727
W        1.59323463       4.77970388      46.27370929
W        0.00000000       3.18646925      47.86685078
W        1.59323463       4.77970388      49.45995290
W        0.00000000       3.18646925      51.05310651
W        1.59323463       4.77970388      52.64628012
W        0.00000000       6.37293851       0.79657260
W        1.59323463       7.96617313       2.38974621
W       -0.00000000       6.37293851       3.98289982
W        1.59323463       7.96617313       5.57600194
W        0.00000000       6.37293851       7.16914343
W        1.59323463       7.96617313       8.76232545
W       -0.00000000       6.37293851      10.35552367
W        1.59323463       7.96617313      11.94873874
W        0.00000000       6.37293851      13.54195690
W        1.59323463       7.96617313      15.13512341
W       -0.00000000       6.37293851      16.72824439
W        1.59323463       7.96617313      18.32140151
W        0.00000000       6.37293851      19.91456100
W        1.59323463       7.96617313      21.50772269
W        0.00000000       6.37293851      23.10091978
W        1.59323463       7.96617313      24.69409217
W       -0.00000000       6.37293851      28.74876055
W        1.59323463       7.96617313      30.34193294
W        0.00000000       6.37293851      31.93513003
W        1.59323463       7.96617313      33.52829172
W       -0.00000000       6.37293851      35.12145121
W        1.59323463       7.96617313      36.71460833
W        0.00000000       6.37293851      38.30772932
W        1.59323463       7.96617313      39.90089582
W       -0.00000000       6.37293851      41.49411398
W        1.59323463       7.96617313      43.08732905
W        0.00000000       6.37293851      44.68052727
W        1.59323463       7.96617313      46.27370929
W       -0.00000000       6.37293851      47.86685078
W        1.59323463       7.96617313      49.45995290
W       -0.00000000       6.37293851      51.05310651
W        1.59323463       7.96617313      52.64628012
W        3.18646925      -0.00000000       0.79657260
W        4.77970388       1.59323463       2.38974621
W        3.18646925       0.00000000       3.98289982
W        4.77970388       1.59323463       5.57600194
W        3.18646925       0.00000000       7.16914343
W        4.77970388       1.59323463       8.76232545
W        3.18646925       0.00000000      10.35552367
W        4.77970388       1.59323463      11.94873874
W        3.18646925       0.00000000      13.54195690
W        4.77970388       1.59323463      15.13512341
W        3.18646925      -0.00000000      16.72824439
W        4.77970388       1.59323463      18.32140151
W        3.18646925      -0.00000000      19.91456100
W        4.77970388       1.59323463      21.50772269
W        3.18646925       0.00000000      23.10091978
W        4.77970388       1.59323463      24.69409217
W        3.18646925       0.00000000      28.74876055
W        4.77970388       1.59323463      30.34193294
W        3.18646925      -0.00000000      31.93513003
W        4.77970388       1.59323463      33.52829172
W        3.18646925       0.00000000      35.12145121
W        4.77970388       1.59323463      36.71460833
W        3.18646925      -0.00000000      38.30772932
W        4.77970388       1.59323463      39.90089582
W        3.18646925       0.00000000      41.49411398
W        4.77970388       1.59323463      43.08732905
W        3.18646925      -0.00000000      44.68052727
W        4.77970388       1.59323463      46.27370929
W        3.18646925       0.00000000      47.86685078
W        4.77970388       1.59323463      49.45995290
W        3.18646925       0.00000000      51.05310651
W        4.77970388       1.59323463      52.64628012
W        3.18646925       3.18646925       0.79657260
W        4.77970388       4.77970388       2.38974621
W        3.18646925       3.18646925       3.98289982
W        4.77970388       4.77970388       5.57600194
W        3.18646925       3.18646925       7.16914343
W        4.77970388       4.77970388       8.76232545
W        3.18646925       3.18646925      10.35552367
W        4.77970388       4.77970388      11.94873874
W        3.18646925       3.18646925      13.54195690
W        4.77970388       4.77970388      15.13512341
W        3.18646925       3.18646925      16.72824439
W        4.77970388       4.77970388      18.32140151
W        3.18646925       3.18646925      19.91456100
W        4.77970388       4.77970388      21.50772269
W        3.18646925       3.18646925      23.10091978
W        4.77970388       4.77970388      24.69409217
W        3.18646925       3.18646925      28.74876055
W        4.77970388       4.77970388      30.34193294
W        3.18646925       3.18646925      31.93513003
W        4.77970388       4.77970388      33.52829172
W        3.18646925       3.18646925      35.12145121
W        4.77970388       4.77970388      36.71460833
W        3.18646925       3.18646925      38.30772932
W        4.77970388       4.77970388      39.90089582
W        3.18646925       3.18646925      41.49411398
W        4.77970388       4.77970388      43.08732905
W        3.18646925       3.18646925      44.68052727
W        4.77970388       4.77970388      46.27370929
W        3.18646925       3.18646925      47.86685078
W        4.77970388       4.77970388      49.45995290
W        3.18646925       3.18646925      51.05310651
W        4.77970388       4.77970388      52.64628012
W        3.18646925       6.37293851       0.79657260
W        4.77970388       7.96617313       2.38974621
W        3.18646925       6.37293851       3.98289982
W        4.77970388       7.96617313       5.57600194
W        3.18646925       6.37293851       7.16914343
W        4.77970388       7.96617313       8.76232545
W        3.18646925       6.37293851      10.35552367
W        4.77970388       7.96617313      11.94873874
W        3.18646925       6.37293851      13.54195690
W        4.77970388       7.96617313      15.13512341
W        3.18646925       6.37293851      16.72824439
W        4.77970388       7.96617313      18.32140151
W        3.18646925       6.37293851      19.91456100
W        4.77970388       7.96617313      21.50772269
W        3.18646925       6.37293851      23.10091978
W        4.77970388       7.96617313      24.69409217
W        3.18646925       6.37293851      28.74876055
W        4.77970388       7.96617313      30.34193294
W        3.18646925       6.37293851      31.93513003
W        4.77970388       7.96617313      33.52829172
W        3.18646925       6.37293851      35.12145121
W        4.77970388       7.96617313      36.71460833
W        3.18646925       6.37293851      38.30772932
W        4.77970388       7.96617313      39.90089582
W        3.18646925       6.37293851      41.49411398
W        4.77970388       7.96617313      43.08732905
W        3.18646925       6.37293851      44.68052727
W        4.77970388       7.96617313      46.27370929
W        3.18646925       6.37293851      47.86685078
W        4.77970388       7.96617313      49.45995290
W        3.18646925       6.37293851      51.05310651
W        4.77970388       7.96617313      52.64628012
W        6.37293851       0.00000000       0.79657260
W        7.96617313       1.59323463       2.38974621
W        6.37293851       0.00000000       3.98289982
W        7.96617313       1.59323463       5.57600194
W        6.37293851       0.00000000       7.16914343
W        7.96617313       1.59323463       8.76232545
W        6.37293851      -0.00000000      10.35552367
W        7.96617313       1.59323463      11.94873874
W        6.37293851       0.00000000      13.54195690
W        7.96617313       1.59323463      15.13512341
W        6.37293851      -0.00000000      16.72824439
W        7.96617313       1.59323463      18.32140151
W        6.37293851      -0.00000000      19.91456100
W        7.96617313       1.59323463      21.50772269
W        6.37293851       0.00000000      23.10091978
W        7.96617313       1.59323463      24.69409217
W        6.37293851      -0.00000000      28.74876055
W        7.96617313       1.59323463      30.34193294
W        6.37293851       0.00000000      31.93513003
W        7.96617313       1.59323463      33.52829172
W        6.37293851      -0.00000000      35.12145121
W        7.96617313       1.59323463      36.71460833
W        6.37293851       0.00000000      38.30772932
W        7.96617313       1.59323463      39.90089582
W        6.37293851      -0.00000000      41.49411398
W        7.96617313       1.59323463      43.08732905
W        6.37293851      -0.00000000      44.68052727
W        7.96617313       1.59323463      46.27370929
W        6.37293851      -0.00000000      47.86685078
W        7.96617313       1.59323463      49.45995290
W        6.37293851       0.00000000      51.05310651
W        7.96617313       1.59323463      52.64628012
W        6.37293851       3.18646925       0.79657260
W        7.96617313       4.77970388       2.38974621
W        6.37293851       3.18646925       3.98289982
W        7.96617313       4.77970388       5.57600194
W        6.37293851       3.18646925       7.16914343
W        7.96617313       4.77970388       8.76232545
W        6.37293851       3.18646925      10.35552367
W        7.96617313       4.77970388      11.94873874
W        6.37293851       3.18646925      13.54195690
W        7.96617313       4.77970388      15.13512341
W        6.37293851       3.18646925      16.72824439
W        7.96617313       4.77970388      18.32140151
W        6.37293851       3.18646925      19.91456100
W        7.96617313       4.77970388      21.50772269
W        6.37293851       3.18646925      23.10091978
W        7.96617313       4.77970388      24.69409217
W        6.37293851       3.18646925      28.74876055
W        7.96617313       4.77970388      30.34193294
W        6.37293851       3.18646925      31.93513003
W        7.96617313       4.77970388      33.52829172
W        6.37293851       3.18646925      35.12145121
W        7.96617313       4.77970388      36.71460833
W        6.37293851       3.18646925      38.30772932
W        7.96617313       4.77970388      39.90089582
W        6.37293851       3.18646925      41.49411398
W        7.96617313       4.77970388      43.08732905
W        6.37293851       3.18646925      44.68052727
W        7.96617313       4.77970388      46.27370929
W        6.37293851       3.18646925      47.86685078
W        7.96617313       4.77970388      49.45995290
W        6.37293851       3.18646925      51.05310651
W        7.96617313       4.77970388      52.64628012
W        6.37293851       6.37293851       0.79657260
W        7.96617313       7.96617313       2.38974621
W        6.37293851       6.37293851       3.98289982
W        7.96617313       7.96617313       5.57600194
W        6.37293851       6.37293851       7.16914343
W        7.96617313       7.96617313       8.76232545
W        6.37293851       6.37293851      10.35552367
W        7.96617313       7.96617313      11.94873874
W        6.37293851       6.37293851      13.54195690
W        7.96617313       7.96617313      15.13512341
W        6.37293851       6.37293851      16.72824439
W        7.96617313       7.96617313      18.32140151
W        6.37293851       6.37293851      19.91456100
W        7.96617313       7.96617313      21.50772269
W        6.37293851       6.37293851      23.10091978
W        7.96617313       7.96617313      24.69409217
W        6.37293851       6.37293851      28.74876055
W        7.96617313       7.96617313      30.34193294
W        6.37293851       6.37293851      31.93513003
W        7.96617313       7.96617313      33.52829172
W        6.37293851       6.37293851      35.12145121
W        7.96617313       7.96617313      36.71460833
W        6.37293851       6.37293851      38.30772932
W        7.96617313       7.96617313      39.90089582
W        6.37293851       6.37293851      41.49411398
W        7.96617313       7.96617313      43.08732905
W        6.37293851       6.37293851      44.68052727
W        7.96617313       7.96617313      46.27370929
W        6.37293851       6.37293851      47.86685078
W        7.96617313       7.96617313      49.45995290
W        6.37293851       6.37293851      51.05310651
W        7.96617313       7.96617313      52.64628012
288
Lattice="9.559407760912599 1.5551574685670926e-18 -1.2681778328733722e-17 1.5551574685670926e-18 9.559407760912599 -3.802032394954696e-17 -6.226046143134533e-17 -1.9250595450418562e-16 53.5454168242428" Properties=species:S:1:pos:R:3 vacuum_gap_Ang=2.564102564102564 frame_index=25 pbc="T T T"
W       -0.00000000       0.00000000       0.79657260
W        1.59323463       1.59323463       2.38974621
W       -0.00000000       0.00000000       3.98289982
W        1.59323463       1.59323463       5.57600194
W        0.00000000       0.00000000       7.16914343
W        1.59323463       1.59323463       8.76232545
W       -0.00000000      -0.00000000      10.35552367
W        1.59323463       1.59323463      11.94873874
W        0.00000000      -0.00000000      13.54195690
W        1.59323463       1.59323463      15.13512341
W        0.00000000       0.00000000      16.72824439
W        1.59323463       1.59323463      18.32140151
W        0.00000000       0.00000000      19.91456100
W        1.59323463       1.59323463      21.50772269
W       -0.00000000      -0.00000000      23.10091978
W        1.59323463       1.59323463      24.69409217
W        0.00000000       0.00000000      28.85132466
W        1.59323463       1.59323463      30.44449704
W        0.00000000      -0.00000000      32.03769413
W        1.59323463       1.59323463      33.63085582
W        0.00000000       0.00000000      35.22401531
W        1.59323463       1.59323463      36.81717244
W        0.00000000      -0.00000000      38.41029342
W        1.59323463       1.59323463      40.00345993
W       -0.00000000      -0.00000000      41.59667808
W        1.59323463       1.59323463      43.18989315
W        0.00000000      -0.00000000      44.78309137
W        1.59323463       1.59323463      46.37627339
W        0.00000000      -0.00000000      47.96941489
W        1.59323463       1.59323463      49.56251700
W       -0.00000000      -0.00000000      51.15567061
W        1.59323463       1.59323463      52.74884423
W       -0.00000000       3.18646925       0.79657260
W        1.59323463       4.77970388       2.38974621
W       -0.00000000       3.18646925       3.98289982
W        1.59323463       4.77970388       5.57600194
W        0.00000000       3.18646925       7.16914343
W        1.59323463       4.77970388       8.76232545
W        0.00000000       3.18646925      10.35552367
W        1.59323463       4.77970388      11.94873874
W       -0.00000000       3.18646925      13.54195690
W        1.59323463       4.77970388      15.13512341
W       -0.00000000       3.18646925      16.72824439
W        1.59323463       4.77970388      18.32140151
W        0.00000000       3.18646925      19.91456100
W        1.59323463       4.77970388      21.50772269
W        0.00000000       3.18646925      23.10091978
W        1.59323463       4.77970388      24.69409217
W        0.00000000       3.18646925      28.85132466
W        1.59323463       4.77970388      30.44449704
W       -0.00000000       3.18646925      32.03769413
W        1.59323463       4.77970388      33.63085582
W        0.00000000       3.18646925      35.22401531
W        1.59323463       4.77970388      36.81717244
W        0.00000000       3.18646925      38.41029342
W        1.59323463       4.77970388      40.00345993
W        0.00000000       3.18646925      41.59667808
W        1.59323463       4.77970388      43.18989315
W        0.00000000       3.18646925      44.78309137
W        1.59323463       4.77970388      46.37627339
W        0.00000000       3.18646925      47.96941489
W        1.59323463       4.77970388      49.56251700
W        0.00000000       3.18646925      51.15567061
W        1.59323463       4.77970388      52.74884423
W        0.00000000       6.37293851       0.79657260
W        1.59323463       7.96617313       2.38974621
W       -0.00000000       6.37293851       3.98289982
W        1.59323463       7.96617313       5.57600194
W        0.00000000       6.37293851       7.16914343
W        1.59323463       7.96617313       8.76232545
W       -0.00000000       6.37293851      10.35552367
W        1.59323463       7.96617313      11.94873874
W        0.00000000       6.37293851      13.54195690
W        1.59323463       7.96617313      15.13512341
W       -0.00000000       6.37293851      16.72824439
W        1.59323463       7.96617313      18.32140151
W        0.00000000       6.37293851      19.91456100
W        1.59323463       7.96617313      21.50772269
W        0.00000000       6.37293851      23.10091978
W        1.59323463       7.96617313      24.69409217
W       -0.00000000       6.37293851      28.85132466
W        1.59323463       7.96617313      30.44449704
W        0.00000000       6.37293851      32.03769413
W        1.59323463       7.96617313      33.63085582
W       -0.00000000       6.37293851      35.22401531
W        1.59323463       7.96617313      36.81717244
W        0.00000000       6.37293851      38.41029342
W        1.59323463       7.96617313      40.00345993
W       -0.00000000       6.37293851      41.59667808
W        1.59323463       7.96617313      43.18989315
W        0.00000000       6.37293851      44.78309137
W        1.59323463       7.96617313      46.37627339
W       -0.00000000       6.37293851      47.96941489
W        1.59323463       7.96617313      49.56251700
W       -0.00000000       6.37293851      51.15567061
W        1.59323463       7.96617313      52.74884423
W        3.18646925      -0.00000000       0.79657260
W        4.77970388       1.59323463       2.38974621
W        3.18646925       0.00000000       3.98289982
W        4.77970388       1.59323463       5.57600194
W        3.18646925       0.00000000       7.16914343
W        4.77970388       1.59323463       8.76232545
W        3.18646925       0.00000000      10.35552367
W        4.77970388       1.59323463      11.94873874
W        3.18646925       0.00000000      13.54195690
W        4.77970388       1.59323463      15.13512341
W        3.18646925      -0.00000000      16.72824439
W        4.77970388       1.59323463      18.32140151
W        3.18646925      -0.00000000      19.91456100
W        4.77970388       1.59323463      21.50772269
W        3.18646925       0.00000000      23.10091978
W        4.77970388       1.59323463      24.69409217
W        3.18646925       0.00000000      28.85132466
W        4.77970388       1.59323463      30.44449704
W        3.18646925      -0.00000000      32.03769413
W        4.77970388       1.59323463      33.63085582
W        3.18646925       0.00000000      35.22401531
W        4.77970388       1.59323463      36.81717244
W        3.18646925      -0.00000000      38.41029342
W        4.77970388       1.59323463      40.00345993
W        3.18646925       0.00000000      41.59667808
W        4.77970388       1.59323463      43.18989315
W        3.18646925      -0.00000000      44.78309137
W        4.77970388       1.59323463      46.37627339
W        3.18646925       0.00000000      47.96941489
W        4.77970388       1.59323463      49.56251700
W        3.18646925       0.00000000      51.15567061
W        4.77970388       1.59323463      52.74884423
W        3.18646925       3.18646925       0.79657260
W        4.77970388       4.77970388       2.38974621
W        3.18646925       3.18646925       3.98289982
W        4.77970388       4.77970388       5.57600194
W        3.18646925       3.18646925       7.16914343
W        4.77970388       4.77970388       8.76232545
W        3.18646925       3.18646925      10.35552367
W        4.77970388       4.77970388      11.94873874
W        3.18646925       3.18646925      13.54195690
W        4.77970388       4.77970388      15.13512341
W        3.18646925       3.18646925      16.72824439
W        4.77970388       4.77970388      18.32140151
W        3.18646925       3.18646925      19.91456100
W        4.77970388       4.77970388      21.50772269
W        3.18646925       3.18646925      23.10091978
W        4.77970388       4.77970388      24.69409217
W        3.18646925       3.18646925      28.85132466
W        4.77970388       4.77970388      30.44449704
W        3.18646925       3.18646925      32.03769413
W        4.77970388       4.77970388      33.63085582
W        3.18646925       3.18646925      35.22401531
W        4.77970388       4.77970388      36.81717244
W        3.18646925       3.18646925      38.41029342
W        4.77970388       4.77970388      40.00345993
W        3.18646925       3.18646925      41.59667808
W        4.77970388       4.77970388      43.18989315
W        3.18646925       3.18646925      44.78309137
W        4.77970388       4.77970388      46.37627339
W        3.18646925       3.18646925      47.96941489
W        4.77970388       4.77970388      49.56251700
W        3.18646925       3.18646925      51.15567061
W        4.77970388       4.77970388      52.74884423
W        3.18646925       6.37293851       0.79657260
W        4.77970388       7.96617313       2.38974621
W        3.18646925       6.37293851       3.98289982
W        4.77970388       7.96617313       5.57600194
W        3.18646925       6.37293851       7.16914343
W        4.77970388       7.96617313       8.76232545
W        3.18646925       6.37293851      10.35552367
W        4.77970388       7.96617313      11.94873874
W        3.18646925       6.37293851      13.54195690
W        4.77970388       7.96617313      15.13512341
W        3.18646925       6.37293851      16.72824439
W        4.77970388       7.96617313      18.32140151
W        3.18646925       6.37293851      19.91456100
W        4.77970388       7.96617313      21.50772269
W        3.18646925       6.37293851      23.10091978
W        4.77970388       7.96617313      24.69409217
W        3.18646925       6.37293851      28.85132466
W        4.77970388       7.96617313      30.44449704
W        3.18646925       6.37293851      32.03769413
W        4.77970388       7.96617313      33.63085582
W        3.18646925       6.37293851      35.22401531
W        4.77970388       7.96617313      36.81717244
W        3.18646925       6.37293851      38.41029342
W        4.77970388       7.96617313      40.00345993
W        3.18646925       6.37293851      41.59667808
W        4.77970388       7.96617313      43.18989315
W        3.18646925       6.37293851      44.78309137
W        4.77970388       7.96617313      46.37627339
W        3.18646925       6.37293851      47.96941489
W        4.77970388       7.96617313      49.56251700
W        3.18646925       6.37293851      51.15567061
W        4.77970388       7.96617313      52.74884423
W        6.37293851       0.00000000       0.79657260
W        7.96617313       1.59323463       2.38974621
W        6.37293851       0.00000000       3.98289982
W        7.96617313       1.59323463       5.57600194
W        6.37293851       0.00000000       7.16914343
W        7.96617313       1.59323463       8.76232545
W        6.37293851      -0.00000000      10.35552367
W        7.96617313       1.59323463      11.94873874
W        6.37293851       0.00000000      13.54195690
W        7.96617313       1.59323463      15.13512341
W        6.37293851      -0.00000000      16.72824439
W        7.96617313       1.59323463      18.32140151
W        6.37293851      -0.00000000      19.91456100
W        7.96617313       1.59323463      21.50772269
W        6.37293851       0.00000000      23.10091978
W        7.96617313       1.59323463      24.69409217
W        6.37293851      -0.00000000      28.85132466
W        7.96617313       1.59323463      30.44449704
W        6.37293851       0.00000000      32.03769413
W        7.96617313       1.59323463      33.63085582
W        6.37293851      -0.00000000      35.22401531
W        7.96617313       1.59323463      36.81717244
W        6.37293851       0.00000000      38.41029342
W        7.96617313       1.59323463      40.00345993
W        6.37293851      -0.00000000      41.59667808
W        7.96617313       1.59323463      43.18989315
W        6.37293851      -0.00000000      44.78309137
W        7.96617313       1.59323463      46.37627339
W        6.37293851      -0.00000000      47.96941489
W        7.96617313       1.59323463      49.56251700
W        6.37293851       0.00000000      51.15567061
W        7.96617313       1.59323463      52.74884423
W        6.37293851       3.18646925       0.79657260
W        7.96617313       4.77970388       2.38974621
W        6.37293851       3.18646925       3.98289982
W        7.96617313       4.77970388       5.57600194
W        6.37293851       3.18646925       7.16914343
W        7.96617313       4.77970388       8.76232545
W        6.37293851       3.18646925      10.35552367
W        7.96617313       4.77970388      11.94873874
W        6.37293851       3.18646925      13.54195690
W        7.96617313       4.77970388      15.13512341
W        6.37293851       3.18646925      16.72824439
W        7.96617313       4.77970388      18.32140151
W        6.37293851       3.18646925      19.91456100
W        7.96617313       4.77970388      21.50772269
W        6.37293851       3.18646925      23.10091978
W        7.96617313       4.77970388      24.69409217
W        6.37293851       3.18646925      28.85132466
W        7.96617313       4.77970388      30.44449704
W        6.37293851       3.18646925      32.03769413
W        7.96617313       4.77970388      33.63085582
W        6.37293851       3.18646925      35.22401531
W        7.96617313       4.77970388      36.81717244
W        6.37293851       3.18646925      38.41029342
W        7.96617313       4.77970388      40.00345993
W        6.37293851       3.18646925      41.59667808
W        7.96617313       4.77970388      43.18989315
W        6.37293851       3.18646925      44.78309137
W        7.96617313       4.77970388      46.37627339
W        6.37293851       3.18646925      47.96941489
W        7.96617313       4.77970388      49.56251700
W        6.37293851       3.18646925      51.15567061
W        7.96617313       4.77970388      52.74884423
W        6.37293851       6.37293851       0.79657260
W        7.96617313       7.96617313       2.38974621
W        6.37293851       6.37293851       3.98289982
W        7.96617313       7.96617313       5.57600194
W        6.37293851       6.37293851       7.16914343
W        7.96617313       7.96617313       8.76232545
W        6.37293851       6.37293851      10.35552367
W        7.96617313       7.96617313      11.94873874
W        6.37293851       6.37293851      13.54195690
W        7.96617313       7.96617313      15.13512341
W        6.37293851       6.37293851      16.72824439
W        7.96617313       7.96617313      18.32140151
W        6.37293851       6.37293851      19.91456100
W        7.96617313       7.96617313      21.50772269
W        6.37293851       6.37293851      23.10091978
W        7.96617313       7.96617313      24.69409217
W        6.37293851       6.37293851      28.85132466
W        7.96617313       7.96617313      30.44449704
W        6.37293851       6.37293851      32.03769413
W        7.96617313       7.96617313      33.63085582
W        6.37293851       6.37293851      35.22401531
W        7.96617313       7.96617313      36.81717244
W        6.37293851       6.37293851      38.41029342
W        7.96617313       7.96617313      40.00345993
W        6.37293851       6.37293851      41.59667808
W        7.96617313       7.96617313      43.18989315
W        6.37293851       6.37293851      44.78309137
W        7.96617313       7.96617313      46.37627339
W        6.37293851       6.37293851      47.96941489
W        7.96617313       7.96617313      49.56251700
W        6.37293851       6.37293851      51.15567061
W        7.96617313       7.96617313      52.74884423
288
Lattice="9.559407760912599 1.5551574685670926e-18 -1.2681778328733722e-17 1.5551574685670926e-18 9.559407760912599 -3.802032394954696e-17 -6.226046143134533e-17 -1.9250595450418562e-16 53.6479809268069" Properties=species:S:1:pos:R:3 vacuum_gap_Ang=2.6666666666666665 frame_index=26 pbc="T T T"
W       -0.00000000       0.00000000       0.79657260
W        1.59323463       1.59323463       2.38974621
W       -0.00000000       0.00000000       3.98289982
W        1.59323463       1.59323463       5.57600194
W        0.00000000       0.00000000       7.16914343
W        1.59323463       1.59323463       8.76232545
W       -0.00000000      -0.00000000      10.35552367
W        1.59323463       1.59323463      11.94873874
W        0.00000000      -0.00000000      13.54195690
W        1.59323463       1.59323463      15.13512341
W        0.00000000       0.00000000      16.72824439
W        1.59323463       1.59323463      18.32140151
W        0.00000000       0.00000000      19.91456100
W        1.59323463       1.59323463      21.50772269
W       -0.00000000      -0.00000000      23.10091978
W        1.59323463       1.59323463      24.69409217
W        0.00000000       0.00000000      28.95388876
W        1.59323463       1.59323463      30.54706114
W        0.00000000      -0.00000000      32.14025823
W        1.59323463       1.59323463      33.73341992
W        0.00000000       0.00000000      35.32657941
W        1.59323463       1.59323463      36.91973654
W        0.00000000      -0.00000000      38.51285752
W        1.59323463       1.59323463      40.10602403
W       -0.00000000      -0.00000000      41.69924218
W        1.59323463       1.59323463      43.29245725
W        0.00000000      -0.00000000      44.88565547
W        1.59323463       1.59323463      46.47883749
W        0.00000000      -0.00000000      48.07197899
W        1.59323463       1.59323463      49.66508111
W       -0.00000000      -0.00000000      51.25823471
W        1.59323463       1.59323463      52.85140833
W       -0.00000000       3.18646925       0.79657260
W        1.59323463       4.77970388       2.38974621
W       -0.00000000       3.18646925       3.98289982
W        1.59323463       4.77970388       5.57600194
W        0.00000000       3.18646925       7.16914343
W        1.59323463       4.77970388       8.76232545
W        0.00000000       3.18646925      10.35552367
W        1.59323463       4.77970388      11.94873874
W       -0.00000000       3.18646925      13.54195690
W        1.59323463       4.77970388      15.13512341
W       -0.00000000       3.18646925      16.72824439
W        1.59323463       4.77970388      18.32140151
W        0.00000000       3.18646925      19.91456100
W        1.59323463       4.77970388      21.50772269
W        0.00000000       3.18646925      23.10091978
W        1.59323463       4.77970388      24.69409217
W        0.00000000       3.18646925      28.95388876
W        1.59323463       4.77970388      30.54706114
W       -0.00000000       3.18646925      32.14025823
W        1.59323463       4.77970388      33.73341992
W        0.00000000       3.18646925      35.32657941
W        1.59323463       4.77970388      36.91973654
W        0.00000000       3.18646925      38.51285752
W        1.59323463       4.77970388      40.10602403
W        0.00000000       3.18646925      41.69924218
W        1.59323463       4.77970388      43.29245725
W        0.00000000       3.18646925      44.88565547
W        1.59323463       4.77970388      46.47883749
W        0.00000000       3.18646925      48.07197899
W        1.59323463       4.77970388      49.66508111
W        0.00000000       3.18646925      51.25823471
W        1.59323463       4.77970388      52.85140833
W        0.00000000       6.37293851       0.79657260
W        1.59323463       7.96617313       2.38974621
W       -0.00000000       6.37293851       3.98289982
W        1.59323463       7.96617313       5.57600194
W        0.00000000       6.37293851       7.16914343
W        1.59323463       7.96617313       8.76232545
W       -0.00000000       6.37293851      10.35552367
W        1.59323463       7.96617313      11.94873874
W        0.00000000       6.37293851      13.54195690
W        1.59323463       7.96617313      15.13512341
W       -0.00000000       6.37293851      16.72824439
W        1.59323463       7.96617313      18.32140151
W        0.00000000       6.37293851      19.91456100
W        1.59323463       7.96617313      21.50772269
W        0.00000000       6.37293851      23.10091978
W        1.59323463       7.96617313      24.69409217
W       -0.00000000       6.37293851      28.95388876
W        1.59323463       7.96617313      30.54706114
W        0.00000000       6.37293851      32.14025823
W        1.59323463       7.96617313      33.73341992
W       -0.00000000       6.37293851      35.32657941
W        1.59323463       7.96617313      36.91973654
W        0.00000000       6.37293851      38.51285752
W        1.59323463       7.96617313      40.10602403
W       -0.00000000       6.37293851      41.69924218
W        1.59323463       7.96617313      43.29245725
W        0.00000000       6.37293851      44.88565547
W        1.59323463       7.96617313      46.47883749
W       -0.00000000       6.37293851      48.07197899
W        1.59323463       7.96617313      49.66508111
W       -0.00000000       6.37293851      51.25823471
W        1.59323463       7.96617313      52.85140833
W        3.18646925      -0.00000000       0.79657260
W        4.77970388       1.59323463       2.38974621
W        3.18646925       0.00000000       3.98289982
W        4.77970388       1.59323463       5.57600194
W        3.18646925       0.00000000       7.16914343
W        4.77970388       1.59323463       8.76232545
W        3.18646925       0.00000000      10.35552367
W        4.77970388       1.59323463      11.94873874
W        3.18646925       0.00000000      13.54195690
W        4.77970388       1.59323463      15.13512341
W        3.18646925      -0.00000000      16.72824439
W        4.77970388       1.59323463      18.32140151
W        3.18646925      -0.00000000      19.91456100
W        4.77970388       1.59323463      21.50772269
W        3.18646925       0.00000000      23.10091978
W        4.77970388       1.59323463      24.69409217
W        3.18646925       0.00000000      28.95388876
W        4.77970388       1.59323463      30.54706114
W        3.18646925      -0.00000000      32.14025823
W        4.77970388       1.59323463      33.73341992
W        3.18646925       0.00000000      35.32657941
W        4.77970388       1.59323463      36.91973654
W        3.18646925      -0.00000000      38.51285752
W        4.77970388       1.59323463      40.10602403
W        3.18646925       0.00000000      41.69924218
W        4.77970388       1.59323463      43.29245725
W        3.18646925      -0.00000000      44.88565547
W        4.77970388       1.59323463      46.47883749
W        3.18646925       0.00000000      48.07197899
W        4.77970388       1.59323463      49.66508111
W        3.18646925       0.00000000      51.25823471
W        4.77970388       1.59323463      52.85140833
W        3.18646925       3.18646925       0.79657260
W        4.77970388       4.77970388       2.38974621
W        3.18646925       3.18646925       3.98289982
W        4.77970388       4.77970388       5.57600194
W        3.18646925       3.18646925       7.16914343
W        4.77970388       4.77970388       8.76232545
W        3.18646925       3.18646925      10.35552367
W        4.77970388       4.77970388      11.94873874
W        3.18646925       3.18646925      13.54195690
W        4.77970388       4.77970388      15.13512341
W        3.18646925       3.18646925      16.72824439
W        4.77970388       4.77970388      18.32140151
W        3.18646925       3.18646925      19.91456100
W        4.77970388       4.77970388      21.50772269
W        3.18646925       3.18646925      23.10091978
W        4.77970388       4.77970388      24.69409217
W        3.18646925       3.18646925      28.95388876
W        4.77970388       4.77970388      30.54706114
W        3.18646925       3.18646925      32.14025823
W        4.77970388       4.77970388      33.73341992
W        3.18646925       3.18646925      35.32657941
W        4.77970388       4.77970388      36.91973654
W        3.18646925       3.18646925      38.51285752
W        4.77970388       4.77970388      40.10602403
W        3.18646925       3.18646925      41.69924218
W        4.77970388       4.77970388      43.29245725
W        3.18646925       3.18646925      44.88565547
W        4.77970388       4.77970388      46.47883749
W        3.18646925       3.18646925      48.07197899
W        4.77970388       4.77970388      49.66508111
W        3.18646925       3.18646925      51.25823471
W        4.77970388       4.77970388      52.85140833
W        3.18646925       6.37293851       0.79657260
W        4.77970388       7.96617313       2.38974621
W        3.18646925       6.37293851       3.98289982
W        4.77970388       7.96617313       5.57600194
W        3.18646925       6.37293851       7.16914343
W        4.77970388       7.96617313       8.76232545
W        3.18646925       6.37293851      10.35552367
W        4.77970388       7.96617313      11.94873874
W        3.18646925       6.37293851      13.54195690
W        4.77970388       7.96617313      15.13512341
W        3.18646925       6.37293851      16.72824439
W        4.77970388       7.96617313      18.32140151
W        3.18646925       6.37293851      19.91456100
W        4.77970388       7.96617313      21.50772269
W        3.18646925       6.37293851      23.10091978
W        4.77970388       7.96617313      24.69409217
W        3.18646925       6.37293851      28.95388876
W        4.77970388       7.96617313      30.54706114
W        3.18646925       6.37293851      32.14025823
W        4.77970388       7.96617313      33.73341992
W        3.18646925       6.37293851      35.32657941
W        4.77970388       7.96617313      36.91973654
W        3.18646925       6.37293851      38.51285752
W        4.77970388       7.96617313      40.10602403
W        3.18646925       6.37293851      41.69924218
W        4.77970388       7.96617313      43.29245725
W        3.18646925       6.37293851      44.88565547
W        4.77970388       7.96617313      46.47883749
W        3.18646925       6.37293851      48.07197899
W        4.77970388       7.96617313      49.66508111
W        3.18646925       6.37293851      51.25823471
W        4.77970388       7.96617313      52.85140833
W        6.37293851       0.00000000       0.79657260
W        7.96617313       1.59323463       2.38974621
W        6.37293851       0.00000000       3.98289982
W        7.96617313       1.59323463       5.57600194
W        6.37293851       0.00000000       7.16914343
W        7.96617313       1.59323463       8.76232545
W        6.37293851      -0.00000000      10.35552367
W        7.96617313       1.59323463      11.94873874
W        6.37293851       0.00000000      13.54195690
W        7.96617313       1.59323463      15.13512341
W        6.37293851      -0.00000000      16.72824439
W        7.96617313       1.59323463      18.32140151
W        6.37293851      -0.00000000      19.91456100
W        7.96617313       1.59323463      21.50772269
W        6.37293851       0.00000000      23.10091978
W        7.96617313       1.59323463      24.69409217
W        6.37293851      -0.00000000      28.95388876
W        7.96617313       1.59323463      30.54706114
W        6.37293851       0.00000000      32.14025823
W        7.96617313       1.59323463      33.73341992
W        6.37293851      -0.00000000      35.32657941
W        7.96617313       1.59323463      36.91973654
W        6.37293851       0.00000000      38.51285752
W        7.96617313       1.59323463      40.10602403
W        6.37293851      -0.00000000      41.69924218
W        7.96617313       1.59323463      43.29245725
W        6.37293851      -0.00000000      44.88565547
W        7.96617313       1.59323463      46.47883749
W        6.37293851      -0.00000000      48.07197899
W        7.96617313       1.59323463      49.66508111
W        6.37293851       0.00000000      51.25823471
W        7.96617313       1.59323463      52.85140833
W        6.37293851       3.18646925       0.79657260
W        7.96617313       4.77970388       2.38974621
W        6.37293851       3.18646925       3.98289982
W        7.96617313       4.77970388       5.57600194
W        6.37293851       3.18646925       7.16914343
W        7.96617313       4.77970388       8.76232545
W        6.37293851       3.18646925      10.35552367
W        7.96617313       4.77970388      11.94873874
W        6.37293851       3.18646925      13.54195690
W        7.96617313       4.77970388      15.13512341
W        6.37293851       3.18646925      16.72824439
W        7.96617313       4.77970388      18.32140151
W        6.37293851       3.18646925      19.91456100
W        7.96617313       4.77970388      21.50772269
W        6.37293851       3.18646925      23.10091978
W        7.96617313       4.77970388      24.69409217
W        6.37293851       3.18646925      28.95388876
W        7.96617313       4.77970388      30.54706114
W        6.37293851       3.18646925      32.14025823
W        7.96617313       4.77970388      33.73341992
W        6.37293851       3.18646925      35.32657941
W        7.96617313       4.77970388      36.91973654
W        6.37293851       3.18646925      38.51285752
W        7.96617313       4.77970388      40.10602403
W        6.37293851       3.18646925      41.69924218
W        7.96617313       4.77970388      43.29245725
W        6.37293851       3.18646925      44.88565547
W        7.96617313       4.77970388      46.47883749
W        6.37293851       3.18646925      48.07197899
W        7.96617313       4.77970388      49.66508111
W        6.37293851       3.18646925      51.25823471
W        7.96617313       4.77970388      52.85140833
W        6.37293851       6.37293851       0.79657260
W        7.96617313       7.96617313       2.38974621
W        6.37293851       6.37293851       3.98289982
W        7.96617313       7.96617313       5.57600194
W        6.37293851       6.37293851       7.16914343
W        7.96617313       7.96617313       8.76232545
W        6.37293851       6.37293851      10.35552367
W        7.96617313       7.96617313      11.94873874
W        6.37293851       6.37293851      13.54195690
W        7.96617313       7.96617313      15.13512341
W        6.37293851       6.37293851      16.72824439
W        7.96617313       7.96617313      18.32140151
W        6.37293851       6.37293851      19.91456100
W        7.96617313       7.96617313      21.50772269
W        6.37293851       6.37293851      23.10091978
W        7.96617313       7.96617313      24.69409217
W        6.37293851       6.37293851      28.95388876
W        7.96617313       7.96617313      30.54706114
W        6.37293851       6.37293851      32.14025823
W        7.96617313       7.96617313      33.73341992
W        6.37293851       6.37293851      35.32657941
W        7.96617313       7.96617313      36.91973654
W        6.37293851       6.37293851      38.51285752
W        7.96617313       7.96617313      40.10602403
W        6.37293851       6.37293851      41.69924218
W        7.96617313       7.96617313      43.29245725
W        6.37293851       6.37293851      44.88565547
W        7.96617313       7.96617313      46.47883749
W        6.37293851       6.37293851      48.07197899
W        7.96617313       7.96617313      49.66508111
W        6.37293851       6.37293851      51.25823471
W        7.96617313       7.96617313      52.85140833
288
Lattice="9.559407760912599 1.5551574685670926e-18 -1.2681778328733722e-17 1.5551574685670926e-18 9.559407760912599 -3.802032394954696e-17 -6.226046143134533e-17 -1.9250595450418562e-16 53.750545029371004" Properties=species:S:1:pos:R:3 vacuum_gap_Ang=2.769230769230769 frame_index=27 pbc="T T T"
W       -0.00000000       0.00000000       0.79657260
W        1.59323463       1.59323463       2.38974621
W       -0.00000000       0.00000000       3.98289982
W        1.59323463       1.59323463       5.57600194
W        0.00000000       0.00000000       7.16914343
W        1.59323463       1.59323463       8.76232545
W       -0.00000000      -0.00000000      10.35552367
W        1.59323463       1.59323463      11.94873874
W        0.00000000      -0.00000000      13.54195690
W        1.59323463       1.59323463      15.13512341
W        0.00000000       0.00000000      16.72824439
W        1.59323463       1.59323463      18.32140151
W        0.00000000       0.00000000      19.91456100
W        1.59323463       1.59323463      21.50772269
W       -0.00000000      -0.00000000      23.10091978
W        1.59323463       1.59323463      24.69409217
W        0.00000000       0.00000000      29.05645286
W        1.59323463       1.59323463      30.64962524
W        0.00000000      -0.00000000      32.24282234
W        1.59323463       1.59323463      33.83598402
W        0.00000000       0.00000000      35.42914352
W        1.59323463       1.59323463      37.02230064
W        0.00000000      -0.00000000      38.61542162
W        1.59323463       1.59323463      40.20858813
W       -0.00000000      -0.00000000      41.80180629
W        1.59323463       1.59323463      43.39502135
W        0.00000000      -0.00000000      44.98821957
W        1.59323463       1.59323463      46.58140160
W        0.00000000      -0.00000000      48.17454309
W        1.59323463       1.59323463      49.76764521
W       -0.00000000      -0.00000000      51.36079882
W        1.59323463       1.59323463      52.95397243
W       -0.00000000       3.18646925       0.79657260
W        1.59323463       4.77970388       2.38974621
W       -0.00000000       3.18646925       3.98289982
W        1.59323463       4.77970388       5.57600194
W        0.00000000       3.18646925       7.16914343
W        1.59323463       4.77970388       8.76232545
W        0.00000000       3.18646925      10.35552367
W        1.59323463       4.77970388      11.94873874
W       -0.00000000       3.18646925      13.54195690
W        1.59323463       4.77970388      15.13512341
W       -0.00000000       3.18646925      16.72824439
W        1.59323463       4.77970388      18.32140151
W        0.00000000       3.18646925      19.91456100
W        1.59323463       4.77970388      21.50772269
W        0.00000000       3.18646925      23.10091978
W        1.59323463       4.77970388      24.69409217
W        0.00000000       3.18646925      29.05645286
W        1.59323463       4.77970388      30.64962524
W       -0.00000000       3.18646925      32.24282234
W        1.59323463       4.77970388      33.83598402
W        0.00000000       3.18646925      35.42914352
W        1.59323463       4.77970388      37.02230064
W        0.00000000       3.18646925      38.61542162
W        1.59323463       4.77970388      40.20858813
W        0.00000000       3.18646925      41.80180629
W        1.59323463       4.77970388      43.39502135
W        0.00000000       3.18646925      44.98821957
W        1.59323463       4.77970388      46.58140160
W        0.00000000       3.18646925      48.17454309
W        1.59323463       4.77970388      49.76764521
W        0.00000000       3.18646925      51.36079882
W        1.59323463       4.77970388      52.95397243
W        0.00000000       6.37293851       0.79657260
W        1.59323463       7.96617313       2.38974621
W       -0.00000000       6.37293851       3.98289982
W        1.59323463       7.96617313       5.57600194
W        0.00000000       6.37293851       7.16914343
W        1.59323463       7.96617313       8.76232545
W       -0.00000000       6.37293851      10.35552367
W        1.59323463       7.96617313      11.94873874
W        0.00000000       6.37293851      13.54195690
W        1.59323463       7.96617313      15.13512341
W       -0.00000000       6.37293851      16.72824439
W        1.59323463       7.96617313      18.32140151
W        0.00000000       6.37293851      19.91456100
W        1.59323463       7.96617313      21.50772269
W        0.00000000       6.37293851      23.10091978
W        1.59323463       7.96617313      24.69409217
W       -0.00000000       6.37293851      29.05645286
W        1.59323463       7.96617313      30.64962524
W        0.00000000       6.37293851      32.24282234
W        1.59323463       7.96617313      33.83598402
W       -0.00000000       6.37293851      35.42914352
W        1.59323463       7.96617313      37.02230064
W        0.00000000       6.37293851      38.61542162
W        1.59323463       7.96617313      40.20858813
W       -0.00000000       6.37293851      41.80180629
W        1.59323463       7.96617313      43.39502135
W        0.00000000       6.37293851      44.98821957
W        1.59323463       7.96617313      46.58140160
W       -0.00000000       6.37293851      48.17454309
W        1.59323463       7.96617313      49.76764521
W       -0.00000000       6.37293851      51.36079882
W        1.59323463       7.96617313      52.95397243
W        3.18646925      -0.00000000       0.79657260
W        4.77970388       1.59323463       2.38974621
W        3.18646925       0.00000000       3.98289982
W        4.77970388       1.59323463       5.57600194
W        3.18646925       0.00000000       7.16914343
W        4.77970388       1.59323463       8.76232545
W        3.18646925       0.00000000      10.35552367
W        4.77970388       1.59323463      11.94873874
W        3.18646925       0.00000000      13.54195690
W        4.77970388       1.59323463      15.13512341
W        3.18646925      -0.00000000      16.72824439
W        4.77970388       1.59323463      18.32140151
W        3.18646925      -0.00000000      19.91456100
W        4.77970388       1.59323463      21.50772269
W        3.18646925       0.00000000      23.10091978
W        4.77970388       1.59323463      24.69409217
W        3.18646925       0.00000000      29.05645286
W        4.77970388       1.59323463      30.64962524
W        3.18646925      -0.00000000      32.24282234
W        4.77970388       1.59323463      33.83598402
W        3.18646925       0.00000000      35.42914352
W        4.77970388       1.59323463      37.02230064
W        3.18646925      -0.00000000      38.61542162
W        4.77970388       1.59323463      40.20858813
W        3.18646925       0.00000000      41.80180629
W        4.77970388       1.59323463      43.39502135
W        3.18646925      -0.00000000      44.98821957
W        4.77970388       1.59323463      46.58140160
W        3.18646925       0.00000000      48.17454309
W        4.77970388       1.59323463      49.76764521
W        3.18646925       0.00000000      51.36079882
W        4.77970388       1.59323463      52.95397243
W        3.18646925       3.18646925       0.79657260
W        4.77970388       4.77970388       2.38974621
W        3.18646925       3.18646925       3.98289982
W        4.77970388       4.77970388       5.57600194
W        3.18646925       3.18646925       7.16914343
W        4.77970388       4.77970388       8.76232545
W        3.18646925       3.18646925      10.35552367
W        4.77970388       4.77970388      11.94873874
W        3.18646925       3.18646925      13.54195690
W        4.77970388       4.77970388      15.13512341
W        3.18646925       3.18646925      16.72824439
W        4.77970388       4.77970388      18.32140151
W        3.18646925       3.18646925      19.91456100
W        4.77970388       4.77970388      21.50772269
W        3.18646925       3.18646925      23.10091978
W        4.77970388       4.77970388      24.69409217
W        3.18646925       3.18646925      29.05645286
W        4.77970388       4.77970388      30.64962524
W        3.18646925       3.18646925      32.24282234
W        4.77970388       4.77970388      33.83598402
W        3.18646925       3.18646925      35.42914352
W        4.77970388       4.77970388      37.02230064
W        3.18646925       3.18646925      38.61542162
W        4.77970388       4.77970388      40.20858813
W        3.18646925       3.18646925      41.80180629
W        4.77970388       4.77970388      43.39502135
W        3.18646925       3.18646925      44.98821957
W        4.77970388       4.77970388      46.58140160
W        3.18646925       3.18646925      48.17454309
W        4.77970388       4.77970388      49.76764521
W        3.18646925       3.18646925      51.36079882
W        4.77970388       4.77970388      52.95397243
W        3.18646925       6.37293851       0.79657260
W        4.77970388       7.96617313       2.38974621
W        3.18646925       6.37293851       3.98289982
W        4.77970388       7.96617313       5.57600194
W        3.18646925       6.37293851       7.16914343
W        4.77970388       7.96617313       8.76232545
W        3.18646925       6.37293851      10.35552367
W        4.77970388       7.96617313      11.94873874
W        3.18646925       6.37293851      13.54195690
W        4.77970388       7.96617313      15.13512341
W        3.18646925       6.37293851      16.72824439
W        4.77970388       7.96617313      18.32140151
W        3.18646925       6.37293851      19.91456100
W        4.77970388       7.96617313      21.50772269
W        3.18646925       6.37293851      23.10091978
W        4.77970388       7.96617313      24.69409217
W        3.18646925       6.37293851      29.05645286
W        4.77970388       7.96617313      30.64962524
W        3.18646925       6.37293851      32.24282234
W        4.77970388       7.96617313      33.83598402
W        3.18646925       6.37293851      35.42914352
W        4.77970388       7.96617313      37.02230064
W        3.18646925       6.37293851      38.61542162
W        4.77970388       7.96617313      40.20858813
W        3.18646925       6.37293851      41.80180629
W        4.77970388       7.96617313      43.39502135
W        3.18646925       6.37293851      44.98821957
W        4.77970388       7.96617313      46.58140160
W        3.18646925       6.37293851      48.17454309
W        4.77970388       7.96617313      49.76764521
W        3.18646925       6.37293851      51.36079882
W        4.77970388       7.96617313      52.95397243
W        6.37293851       0.00000000       0.79657260
W        7.96617313       1.59323463       2.38974621
W        6.37293851       0.00000000       3.98289982
W        7.96617313       1.59323463       5.57600194
W        6.37293851       0.00000000       7.16914343
W        7.96617313       1.59323463       8.76232545
W        6.37293851      -0.00000000      10.35552367
W        7.96617313       1.59323463      11.94873874
W        6.37293851       0.00000000      13.54195690
W        7.96617313       1.59323463      15.13512341
W        6.37293851      -0.00000000      16.72824439
W        7.96617313       1.59323463      18.32140151
W        6.37293851      -0.00000000      19.91456100
W        7.96617313       1.59323463      21.50772269
W        6.37293851       0.00000000      23.10091978
W        7.96617313       1.59323463      24.69409217
W        6.37293851      -0.00000000      29.05645286
W        7.96617313       1.59323463      30.64962524
W        6.37293851       0.00000000      32.24282234
W        7.96617313       1.59323463      33.83598402
W        6.37293851      -0.00000000      35.42914352
W        7.96617313       1.59323463      37.02230064
W        6.37293851       0.00000000      38.61542162
W        7.96617313       1.59323463      40.20858813
W        6.37293851      -0.00000000      41.80180629
W        7.96617313       1.59323463      43.39502135
W        6.37293851      -0.00000000      44.98821957
W        7.96617313       1.59323463      46.58140160
W        6.37293851      -0.00000000      48.17454309
W        7.96617313       1.59323463      49.76764521
W        6.37293851       0.00000000      51.36079882
W        7.96617313       1.59323463      52.95397243
W        6.37293851       3.18646925       0.79657260
W        7.96617313       4.77970388       2.38974621
W        6.37293851       3.18646925       3.98289982
W        7.96617313       4.77970388       5.57600194
W        6.37293851       3.18646925       7.16914343
W        7.96617313       4.77970388       8.76232545
W        6.37293851       3.18646925      10.35552367
W        7.96617313       4.77970388      11.94873874
W        6.37293851       3.18646925      13.54195690
W        7.96617313       4.77970388      15.13512341
W        6.37293851       3.18646925      16.72824439
W        7.96617313       4.77970388      18.32140151
W        6.37293851       3.18646925      19.91456100
W        7.96617313       4.77970388      21.50772269
W        6.37293851       3.18646925      23.10091978
W        7.96617313       4.77970388      24.69409217
W        6.37293851       3.18646925      29.05645286
W        7.96617313       4.77970388      30.64962524
W        6.37293851       3.18646925      32.24282234
W        7.96617313       4.77970388      33.83598402
W        6.37293851       3.18646925      35.42914352
W        7.96617313       4.77970388      37.02230064
W        6.37293851       3.18646925      38.61542162
W        7.96617313       4.77970388      40.20858813
W        6.37293851       3.18646925      41.80180629
W        7.96617313       4.77970388      43.39502135
W        6.37293851       3.18646925      44.98821957
W        7.96617313       4.77970388      46.58140160
W        6.37293851       3.18646925      48.17454309
W        7.96617313       4.77970388      49.76764521
W        6.37293851       3.18646925      51.36079882
W        7.96617313       4.77970388      52.95397243
W        6.37293851       6.37293851       0.79657260
W        7.96617313       7.96617313       2.38974621
W        6.37293851       6.37293851       3.98289982
W        7.96617313       7.96617313       5.57600194
W        6.37293851       6.37293851       7.16914343
W        7.96617313       7.96617313       8.76232545
W        6.37293851       6.37293851      10.35552367
W        7.96617313       7.96617313      11.94873874
W        6.37293851       6.37293851      13.54195690
W        7.96617313       7.96617313      15.13512341
W        6.37293851       6.37293851      16.72824439
W        7.96617313       7.96617313      18.32140151
W        6.37293851       6.37293851      19.91456100
W        7.96617313       7.96617313      21.50772269
W        6.37293851       6.37293851      23.10091978
W        7.96617313       7.96617313      24.69409217
W        6.37293851       6.37293851      29.05645286
W        7.96617313       7.96617313      30.64962524
W        6.37293851       6.37293851      32.24282234
W        7.96617313       7.96617313      33.83598402
W        6.37293851       6.37293851      35.42914352
W        7.96617313       7.96617313      37.02230064
W        6.37293851       6.37293851      38.61542162
W        7.96617313       7.96617313      40.20858813
W        6.37293851       6.37293851      41.80180629
W        7.96617313       7.96617313      43.39502135
W        6.37293851       6.37293851      44.98821957
W        7.96617313       7.96617313      46.58140160
W        6.37293851       6.37293851      48.17454309
W        7.96617313       7.96617313      49.76764521
W        6.37293851       6.37293851      51.36079882
W        7.96617313       7.96617313      52.95397243
288
Lattice="9.559407760912599 1.5551574685670926e-18 -1.2681778328733722e-17 1.5551574685670926e-18 9.559407760912599 -3.802032394954696e-17 -6.226046143134533e-17 -1.9250595450418562e-16 53.853109131935106" Properties=species:S:1:pos:R:3 vacuum_gap_Ang=2.871794871794872 frame_index=28 pbc="T T T"
W       -0.00000000       0.00000000       0.79657260
W        1.59323463       1.59323463       2.38974621
W       -0.00000000       0.00000000       3.98289982
W        1.59323463       1.59323463       5.57600194
W        0.00000000       0.00000000       7.16914343
W        1.59323463       1.59323463       8.76232545
W       -0.00000000      -0.00000000      10.35552367
W        1.59323463       1.59323463      11.94873874
W        0.00000000      -0.00000000      13.54195690
W        1.59323463       1.59323463      15.13512341
W        0.00000000       0.00000000      16.72824439
W        1.59323463       1.59323463      18.32140151
W        0.00000000       0.00000000      19.91456100
W        1.59323463       1.59323463      21.50772269
W       -0.00000000      -0.00000000      23.10091978
W        1.59323463       1.59323463      24.69409217
W        0.00000000       0.00000000      29.15901696
W        1.59323463       1.59323463      30.75218935
W        0.00000000      -0.00000000      32.34538644
W        1.59323463       1.59323463      33.93854813
W        0.00000000       0.00000000      35.53170762
W        1.59323463       1.59323463      37.12486474
W        0.00000000      -0.00000000      38.71798573
W        1.59323463       1.59323463      40.31115224
W       -0.00000000      -0.00000000      41.90437039
W        1.59323463       1.59323463      43.49758546
W        0.00000000      -0.00000000      45.09078368
W        1.59323463       1.59323463      46.68396570
W        0.00000000      -0.00000000      48.27710719
W        1.59323463       1.59323463      49.87020931
W       -0.00000000      -0.00000000      51.46336292
W        1.59323463       1.59323463      53.05653653
W       -0.00000000       3.18646925       0.79657260
W        1.59323463       4.77970388       2.38974621
W       -0.00000000       3.18646925       3.98289982
W        1.59323463       4.77970388       5.57600194
W        0.00000000       3.18646925       7.16914343
W        1.59323463       4.77970388       8.76232545
W        0.00000000       3.18646925      10.35552367
W        1.59323463       4.77970388      11.94873874
W       -0.00000000       3.18646925      13.54195690
W        1.59323463       4.77970388      15.13512341
W       -0.00000000       3.18646925      16.72824439
W        1.59323463       4.77970388      18.32140151
W        0.00000000       3.18646925      19.91456100
W        1.59323463       4.77970388      21.50772269
W        0.00000000       3.18646925      23.10091978
W        1.59323463       4.77970388      24.69409217
W        0.00000000       3.18646925      29.15901696
W        1.59323463       4.77970388      30.75218935
W       -0.00000000       3.18646925      32.34538644
W        1.59323463       4.77970388      33.93854813
W        0.00000000       3.18646925      35.53170762
W        1.59323463       4.77970388      37.12486474
W        0.00000000       3.18646925      38.71798573
W        1.59323463       4.77970388      40.31115224
W        0.00000000       3.18646925      41.90437039
W        1.59323463       4.77970388      43.49758546
W        0.00000000       3.18646925      45.09078368
W        1.59323463       4.77970388      46.68396570
W        0.00000000       3.18646925      48.27710719
W        1.59323463       4.77970388      49.87020931
W        0.00000000       3.18646925      51.46336292
W        1.59323463       4.77970388      53.05653653
W        0.00000000       6.37293851       0.79657260
W        1.59323463       7.96617313       2.38974621
W       -0.00000000       6.37293851       3.98289982
W        1.59323463       7.96617313       5.57600194
W        0.00000000       6.37293851       7.16914343
W        1.59323463       7.96617313       8.76232545
W       -0.00000000       6.37293851      10.35552367
W        1.59323463       7.96617313      11.94873874
W        0.00000000       6.37293851      13.54195690
W        1.59323463       7.96617313      15.13512341
W       -0.00000000       6.37293851      16.72824439
W        1.59323463       7.96617313      18.32140151
W        0.00000000       6.37293851      19.91456100
W        1.59323463       7.96617313      21.50772269
W        0.00000000       6.37293851      23.10091978
W        1.59323463       7.96617313      24.69409217
W       -0.00000000       6.37293851      29.15901696
W        1.59323463       7.96617313      30.75218935
W        0.00000000       6.37293851      32.34538644
W        1.59323463       7.96617313      33.93854813
W       -0.00000000       6.37293851      35.53170762
W        1.59323463       7.96617313      37.12486474
W        0.00000000       6.37293851      38.71798573
W        1.59323463       7.96617313      40.31115224
W       -0.00000000       6.37293851      41.90437039
W        1.59323463       7.96617313      43.49758546
W        0.00000000       6.37293851      45.09078368
W        1.59323463       7.96617313      46.68396570
W       -0.00000000       6.37293851      48.27710719
W        1.59323463       7.96617313      49.87020931
W       -0.00000000       6.37293851      51.46336292
W        1.59323463       7.96617313      53.05653653
W        3.18646925      -0.00000000       0.79657260
W        4.77970388       1.59323463       2.38974621
W        3.18646925       0.00000000       3.98289982
W        4.77970388       1.59323463       5.57600194
W        3.18646925       0.00000000       7.16914343
W        4.77970388       1.59323463       8.76232545
W        3.18646925       0.00000000      10.35552367
W        4.77970388       1.59323463      11.94873874
W        3.18646925       0.00000000      13.54195690
W        4.77970388       1.59323463      15.13512341
W        3.18646925      -0.00000000      16.72824439
W        4.77970388       1.59323463      18.32140151
W        3.18646925      -0.00000000      19.91456100
W        4.77970388       1.59323463      21.50772269
W        3.18646925       0.00000000      23.10091978
W        4.77970388       1.59323463      24.69409217
W        3.18646925       0.00000000      29.15901696
W        4.77970388       1.59323463      30.75218935
W        3.18646925      -0.00000000      32.34538644
W        4.77970388       1.59323463      33.93854813
W        3.18646925       0.00000000      35.53170762
W        4.77970388       1.59323463      37.12486474
W        3.18646925      -0.00000000      38.71798573
W        4.77970388       1.59323463      40.31115224
W        3.18646925       0.00000000      41.90437039
W        4.77970388       1.59323463      43.49758546
W        3.18646925      -0.00000000      45.09078368
W        4.77970388       1.59323463      46.68396570
W        3.18646925       0.00000000      48.27710719
W        4.77970388       1.59323463      49.87020931
W        3.18646925       0.00000000      51.46336292
W        4.77970388       1.59323463      53.05653653
W        3.18646925       3.18646925       0.79657260
W        4.77970388       4.77970388       2.38974621
W        3.18646925       3.18646925       3.98289982
W        4.77970388       4.77970388       5.57600194
W        3.18646925       3.18646925       7.16914343
W        4.77970388       4.77970388       8.76232545
W        3.18646925       3.18646925      10.35552367
W        4.77970388       4.77970388      11.94873874
W        3.18646925       3.18646925      13.54195690
W        4.77970388       4.77970388      15.13512341
W        3.18646925       3.18646925      16.72824439
W        4.77970388       4.77970388      18.32140151
W        3.18646925       3.18646925      19.91456100
W        4.77970388       4.77970388      21.50772269
W        3.18646925       3.18646925      23.10091978
W        4.77970388       4.77970388      24.69409217
W        3.18646925       3.18646925      29.15901696
W        4.77970388       4.77970388      30.75218935
W        3.18646925       3.18646925      32.34538644
W        4.77970388       4.77970388      33.93854813
W        3.18646925       3.18646925      35.53170762
W        4.77970388       4.77970388      37.12486474
W        3.18646925       3.18646925      38.71798573
W        4.77970388       4.77970388      40.31115224
W        3.18646925       3.18646925      41.90437039
W        4.77970388       4.77970388      43.49758546
W        3.18646925       3.18646925      45.09078368
W        4.77970388       4.77970388      46.68396570
W        3.18646925       3.18646925      48.27710719
W        4.77970388       4.77970388      49.87020931
W        3.18646925       3.18646925      51.46336292
W        4.77970388       4.77970388      53.05653653
W        3.18646925       6.37293851       0.79657260
W        4.77970388       7.96617313       2.38974621
W        3.18646925       6.37293851       3.98289982
W        4.77970388       7.96617313       5.57600194
W        3.18646925       6.37293851       7.16914343
W        4.77970388       7.96617313       8.76232545
W        3.18646925       6.37293851      10.35552367
W        4.77970388       7.96617313      11.94873874
W        3.18646925       6.37293851      13.54195690
W        4.77970388       7.96617313      15.13512341
W        3.18646925       6.37293851      16.72824439
W        4.77970388       7.96617313      18.32140151
W        3.18646925       6.37293851      19.91456100
W        4.77970388       7.96617313      21.50772269
W        3.18646925       6.37293851      23.10091978
W        4.77970388       7.96617313      24.69409217
W        3.18646925       6.37293851      29.15901696
W        4.77970388       7.96617313      30.75218935
W        3.18646925       6.37293851      32.34538644
W        4.77970388       7.96617313      33.93854813
W        3.18646925       6.37293851      35.53170762
W        4.77970388       7.96617313      37.12486474
W        3.18646925       6.37293851      38.71798573
W        4.77970388       7.96617313      40.31115224
W        3.18646925       6.37293851      41.90437039
W        4.77970388       7.96617313      43.49758546
W        3.18646925       6.37293851      45.09078368
W        4.77970388       7.96617313      46.68396570
W        3.18646925       6.37293851      48.27710719
W        4.77970388       7.96617313      49.87020931
W        3.18646925       6.37293851      51.46336292
W        4.77970388       7.96617313      53.05653653
W        6.37293851       0.00000000       0.79657260
W        7.96617313       1.59323463       2.38974621
W        6.37293851       0.00000000       3.98289982
W        7.96617313       1.59323463       5.57600194
W        6.37293851       0.00000000       7.16914343
W        7.96617313       1.59323463       8.76232545
W        6.37293851      -0.00000000      10.35552367
W        7.96617313       1.59323463      11.94873874
W        6.37293851       0.00000000      13.54195690
W        7.96617313       1.59323463      15.13512341
W        6.37293851      -0.00000000      16.72824439
W        7.96617313       1.59323463      18.32140151
W        6.37293851      -0.00000000      19.91456100
W        7.96617313       1.59323463      21.50772269
W        6.37293851       0.00000000      23.10091978
W        7.96617313       1.59323463      24.69409217
W        6.37293851      -0.00000000      29.15901696
W        7.96617313       1.59323463      30.75218935
W        6.37293851       0.00000000      32.34538644
W        7.96617313       1.59323463      33.93854813
W        6.37293851      -0.00000000      35.53170762
W        7.96617313       1.59323463      37.12486474
W        6.37293851       0.00000000      38.71798573
W        7.96617313       1.59323463      40.31115224
W        6.37293851      -0.00000000      41.90437039
W        7.96617313       1.59323463      43.49758546
W        6.37293851      -0.00000000      45.09078368
W        7.96617313       1.59323463      46.68396570
W        6.37293851      -0.00000000      48.27710719
W        7.96617313       1.59323463      49.87020931
W        6.37293851       0.00000000      51.46336292
W        7.96617313       1.59323463      53.05653653
W        6.37293851       3.18646925       0.79657260
W        7.96617313       4.77970388       2.38974621
W        6.37293851       3.18646925       3.98289982
W        7.96617313       4.77970388       5.57600194
W        6.37293851       3.18646925       7.16914343
W        7.96617313       4.77970388       8.76232545
W        6.37293851       3.18646925      10.35552367
W        7.96617313       4.77970388      11.94873874
W        6.37293851       3.18646925      13.54195690
W        7.96617313       4.77970388      15.13512341
W        6.37293851       3.18646925      16.72824439
W        7.96617313       4.77970388      18.32140151
W        6.37293851       3.18646925      19.91456100
W        7.96617313       4.77970388      21.50772269
W        6.37293851       3.18646925      23.10091978
W        7.96617313       4.77970388      24.69409217
W        6.37293851       3.18646925      29.15901696
W        7.96617313       4.77970388      30.75218935
W        6.37293851       3.18646925      32.34538644
W        7.96617313       4.77970388      33.93854813
W        6.37293851       3.18646925      35.53170762
W        7.96617313       4.77970388      37.12486474
W        6.37293851       3.18646925      38.71798573
W        7.96617313       4.77970388      40.31115224
W        6.37293851       3.18646925      41.90437039
W        7.96617313       4.77970388      43.49758546
W        6.37293851       3.18646925      45.09078368
W        7.96617313       4.77970388      46.68396570
W        6.37293851       3.18646925      48.27710719
W        7.96617313       4.77970388      49.87020931
W        6.37293851       3.18646925      51.46336292
W        7.96617313       4.77970388      53.05653653
W        6.37293851       6.37293851       0.79657260
W        7.96617313       7.96617313       2.38974621
W        6.37293851       6.37293851       3.98289982
W        7.96617313       7.96617313       5.57600194
W        6.37293851       6.37293851       7.16914343
W        7.96617313       7.96617313       8.76232545
W        6.37293851       6.37293851      10.35552367
W        7.96617313       7.96617313      11.94873874
W        6.37293851       6.37293851      13.54195690
W        7.96617313       7.96617313      15.13512341
W        6.37293851       6.37293851      16.72824439
W        7.96617313       7.96617313      18.32140151
W        6.37293851       6.37293851      19.91456100
W        7.96617313       7.96617313      21.50772269
W        6.37293851       6.37293851      23.10091978
W        7.96617313       7.96617313      24.69409217
W        6.37293851       6.37293851      29.15901696
W        7.96617313       7.96617313      30.75218935
W        6.37293851       6.37293851      32.34538644
W        7.96617313       7.96617313      33.93854813
W        6.37293851       6.37293851      35.53170762
W        7.96617313       7.96617313      37.12486474
W        6.37293851       6.37293851      38.71798573
W        7.96617313       7.96617313      40.31115224
W        6.37293851       6.37293851      41.90437039
W        7.96617313       7.96617313      43.49758546
W        6.37293851       6.37293851      45.09078368
W        7.96617313       7.96617313      46.68396570
W        6.37293851       6.37293851      48.27710719
W        7.96617313       7.96617313      49.87020931
W        6.37293851       6.37293851      51.46336292
W        7.96617313       7.96617313      53.05653653
288
Lattice="9.559407760912599 1.5551574685670926e-18 -1.2681778328733722e-17 1.5551574685670926e-18 9.559407760912599 -3.802032394954696e-17 -6.226046143134533e-17 -1.9250595450418562e-16 53.955673234499216" Properties=species:S:1:pos:R:3 vacuum_gap_Ang=2.9743589743589745 frame_index=29 pbc="T T T"
W       -0.00000000       0.00000000       0.79657260
W        1.59323463       1.59323463       2.38974621
W       -0.00000000       0.00000000       3.98289982
W        1.59323463       1.59323463       5.57600194
W        0.00000000       0.00000000       7.16914343
W        1.59323463       1.59323463       8.76232545
W       -0.00000000      -0.00000000      10.35552367
W        1.59323463       1.59323463      11.94873874
W        0.00000000      -0.00000000      13.54195690
W        1.59323463       1.59323463      15.13512341
W        0.00000000       0.00000000      16.72824439
W        1.59323463       1.59323463      18.32140151
W        0.00000000       0.00000000      19.91456100
W        1.59323463       1.59323463      21.50772269
W       -0.00000000      -0.00000000      23.10091978
W        1.59323463       1.59323463      24.69409217
W        0.00000000       0.00000000      29.26158107
W        1.59323463       1.59323463      30.85475345
W        0.00000000      -0.00000000      32.44795054
W        1.59323463       1.59323463      34.04111223
W        0.00000000       0.00000000      35.63427172
W        1.59323463       1.59323463      37.22742885
W        0.00000000      -0.00000000      38.82054983
W        1.59323463       1.59323463      40.41371634
W       -0.00000000      -0.00000000      42.00693449
W        1.59323463       1.59323463      43.60014956
W        0.00000000      -0.00000000      45.19334778
W        1.59323463       1.59323463      46.78652980
W        0.00000000      -0.00000000      48.37967130
W        1.59323463       1.59323463      49.97277341
W       -0.00000000      -0.00000000      51.56592702
W        1.59323463       1.59323463      53.15910064
W       -0.00000000       3.18646925       0.79657260
W        1.59323463       4.77970388       2.38974621
W       -0.00000000       3.18646925       3.98289982
W        1.59323463       4.77970388       5.57600194
W        0.00000000       3.18646925       7.16914343
W        1.59323463       4.77970388       8.76232545
W        0.00000000       3.18646925      10.35552367
W        1.59323463       4.77970388      11.94873874
W       -0.00000000       3.18646925      13.54195690
W        1.59323463       4.77970388      15.13512341
W       -0.00000000       3.18646925      16.72824439
W        1.59323463       4.77970388      18.32140151
W        0.00000000       3.18646925      19.91456100
W        1.59323463       4.77970388      21.50772269
W        0.00000000       3.18646925      23.10091978
W        1.59323463       4.77970388      24.69409217
W        0.00000000       3.18646925      29.26158107
W        1.59323463       4.77970388      30.85475345
W       -0.00000000       3.18646925      32.44795054
W        1.59323463       4.77970388      34.04111223
W        0.00000000       3.18646925      35.63427172
W        1.59323463       4.77970388      37.22742885
W        0.00000000       3.18646925      38.82054983
W        1.59323463       4.77970388      40.41371634
W        0.00000000       3.18646925      42.00693449
W        1.59323463       4.77970388      43.60014956
W        0.00000000       3.18646925      45.19334778
W        1.59323463       4.77970388      46.78652980
W        0.00000000       3.18646925      48.37967130
W        1.59323463       4.77970388      49.97277341
W        0.00000000       3.18646925      51.56592702
W        1.59323463       4.77970388      53.15910064
W        0.00000000       6.37293851       0.79657260
W        1.59323463       7.96617313       2.38974621
W       -0.00000000       6.37293851       3.98289982
W        1.59323463       7.96617313       5.57600194
W        0.00000000       6.37293851       7.16914343
W        1.59323463       7.96617313       8.76232545
W       -0.00000000       6.37293851      10.35552367
W        1.59323463       7.96617313      11.94873874
W        0.00000000       6.37293851      13.54195690
W        1.59323463       7.96617313      15.13512341
W       -0.00000000       6.37293851      16.72824439
W        1.59323463       7.96617313      18.32140151
W        0.00000000       6.37293851      19.91456100
W        1.59323463       7.96617313      21.50772269
W        0.00000000       6.37293851      23.10091978
W        1.59323463       7.96617313      24.69409217
W       -0.00000000       6.37293851      29.26158107
W        1.59323463       7.96617313      30.85475345
W        0.00000000       6.37293851      32.44795054
W        1.59323463       7.96617313      34.04111223
W       -0.00000000       6.37293851      35.63427172
W        1.59323463       7.96617313      37.22742885
W        0.00000000       6.37293851      38.82054983
W        1.59323463       7.96617313      40.41371634
W       -0.00000000       6.37293851      42.00693449
W        1.59323463       7.96617313      43.60014956
W        0.00000000       6.37293851      45.19334778
W        1.59323463       7.96617313      46.78652980
W       -0.00000000       6.37293851      48.37967130
W        1.59323463       7.96617313      49.97277341
W       -0.00000000       6.37293851      51.56592702
W        1.59323463       7.96617313      53.15910064
W        3.18646925      -0.00000000       0.79657260
W        4.77970388       1.59323463       2.38974621
W        3.18646925       0.00000000       3.98289982
W        4.77970388       1.59323463       5.57600194
W        3.18646925       0.00000000       7.16914343
W        4.77970388       1.59323463       8.76232545
W        3.18646925       0.00000000      10.35552367
W        4.77970388       1.59323463      11.94873874
W        3.18646925       0.00000000      13.54195690
W        4.77970388       1.59323463      15.13512341
W        3.18646925      -0.00000000      16.72824439
W        4.77970388       1.59323463      18.32140151
W        3.18646925      -0.00000000      19.91456100
W        4.77970388       1.59323463      21.50772269
W        3.18646925       0.00000000      23.10091978
W        4.77970388       1.59323463      24.69409217
W        3.18646925       0.00000000      29.26158107
W        4.77970388       1.59323463      30.85475345
W        3.18646925      -0.00000000      32.44795054
W        4.77970388       1.59323463      34.04111223
W        3.18646925       0.00000000      35.63427172
W        4.77970388       1.59323463      37.22742885
W        3.18646925      -0.00000000      38.82054983
W        4.77970388       1.59323463      40.41371634
W        3.18646925       0.00000000      42.00693449
W        4.77970388       1.59323463      43.60014956
W        3.18646925      -0.00000000      45.19334778
W        4.77970388       1.59323463      46.78652980
W        3.18646925       0.00000000      48.37967130
W        4.77970388       1.59323463      49.97277341
W        3.18646925       0.00000000      51.56592702
W        4.77970388       1.59323463      53.15910064
W        3.18646925       3.18646925       0.79657260
W        4.77970388       4.77970388       2.38974621
W        3.18646925       3.18646925       3.98289982
W        4.77970388       4.77970388       5.57600194
W        3.18646925       3.18646925       7.16914343
W        4.77970388       4.77970388       8.76232545
W        3.18646925       3.18646925      10.35552367
W        4.77970388       4.77970388      11.94873874
W        3.18646925       3.18646925      13.54195690
W        4.77970388       4.77970388      15.13512341
W        3.18646925       3.18646925      16.72824439
W        4.77970388       4.77970388      18.32140151
W        3.18646925       3.18646925      19.91456100
W        4.77970388       4.77970388      21.50772269
W        3.18646925       3.18646925      23.10091978
W        4.77970388       4.77970388      24.69409217
W        3.18646925       3.18646925      29.26158107
W        4.77970388       4.77970388      30.85475345
W        3.18646925       3.18646925      32.44795054
W        4.77970388       4.77970388      34.04111223
W        3.18646925       3.18646925      35.63427172
W        4.77970388       4.77970388      37.22742885
W        3.18646925       3.18646925      38.82054983
W        4.77970388       4.77970388      40.41371634
W        3.18646925       3.18646925      42.00693449
W        4.77970388       4.77970388      43.60014956
W        3.18646925       3.18646925      45.19334778
W        4.77970388       4.77970388      46.78652980
W        3.18646925       3.18646925      48.37967130
W        4.77970388       4.77970388      49.97277341
W        3.18646925       3.18646925      51.56592702
W        4.77970388       4.77970388      53.15910064
W        3.18646925       6.37293851       0.79657260
W        4.77970388       7.96617313       2.38974621
W        3.18646925       6.37293851       3.98289982
W        4.77970388       7.96617313       5.57600194
W        3.18646925       6.37293851       7.16914343
W        4.77970388       7.96617313       8.76232545
W        3.18646925       6.37293851      10.35552367
W        4.77970388       7.96617313      11.94873874
W        3.18646925       6.37293851      13.54195690
W        4.77970388       7.96617313      15.13512341
W        3.18646925       6.37293851      16.72824439
W        4.77970388       7.96617313      18.32140151
W        3.18646925       6.37293851      19.91456100
W        4.77970388       7.96617313      21.50772269
W        3.18646925       6.37293851      23.10091978
W        4.77970388       7.96617313      24.69409217
W        3.18646925       6.37293851      29.26158107
W        4.77970388       7.96617313      30.85475345
W        3.18646925       6.37293851      32.44795054
W        4.77970388       7.96617313      34.04111223
W        3.18646925       6.37293851      35.63427172
W        4.77970388       7.96617313      37.22742885
W        3.18646925       6.37293851      38.82054983
W        4.77970388       7.96617313      40.41371634
W        3.18646925       6.37293851      42.00693449
W        4.77970388       7.96617313      43.60014956
W        3.18646925       6.37293851      45.19334778
W        4.77970388       7.96617313      46.78652980
W        3.18646925       6.37293851      48.37967130
W        4.77970388       7.96617313      49.97277341
W        3.18646925       6.37293851      51.56592702
W        4.77970388       7.96617313      53.15910064
W        6.37293851       0.00000000       0.79657260
W        7.96617313       1.59323463       2.38974621
W        6.37293851       0.00000000       3.98289982
W        7.96617313       1.59323463       5.57600194
W        6.37293851       0.00000000       7.16914343
W        7.96617313       1.59323463       8.76232545
W        6.37293851      -0.00000000      10.35552367
W        7.96617313       1.59323463      11.94873874
W        6.37293851       0.00000000      13.54195690
W        7.96617313       1.59323463      15.13512341
W        6.37293851      -0.00000000      16.72824439
W        7.96617313       1.59323463      18.32140151
W        6.37293851      -0.00000000      19.91456100
W        7.96617313       1.59323463      21.50772269
W        6.37293851       0.00000000      23.10091978
W        7.96617313       1.59323463      24.69409217
W        6.37293851      -0.00000000      29.26158107
W        7.96617313       1.59323463      30.85475345
W        6.37293851       0.00000000      32.44795054
W        7.96617313       1.59323463      34.04111223
W        6.37293851      -0.00000000      35.63427172
W        7.96617313       1.59323463      37.22742885
W        6.37293851       0.00000000      38.82054983
W        7.96617313       1.59323463      40.41371634
W        6.37293851      -0.00000000      42.00693449
W        7.96617313       1.59323463      43.60014956
W        6.37293851      -0.00000000      45.19334778
W        7.96617313       1.59323463      46.78652980
W        6.37293851      -0.00000000      48.37967130
W        7.96617313       1.59323463      49.97277341
W        6.37293851       0.00000000      51.56592702
W        7.96617313       1.59323463      53.15910064
W        6.37293851       3.18646925       0.79657260
W        7.96617313       4.77970388       2.38974621
W        6.37293851       3.18646925       3.98289982
W        7.96617313       4.77970388       5.57600194
W        6.37293851       3.18646925       7.16914343
W        7.96617313       4.77970388       8.76232545
W        6.37293851       3.18646925      10.35552367
W        7.96617313       4.77970388      11.94873874
W        6.37293851       3.18646925      13.54195690
W        7.96617313       4.77970388      15.13512341
W        6.37293851       3.18646925      16.72824439
W        7.96617313       4.77970388      18.32140151
W        6.37293851       3.18646925      19.91456100
W        7.96617313       4.77970388      21.50772269
W        6.37293851       3.18646925      23.10091978
W        7.96617313       4.77970388      24.69409217
W        6.37293851       3.18646925      29.26158107
W        7.96617313       4.77970388      30.85475345
W        6.37293851       3.18646925      32.44795054
W        7.96617313       4.77970388      34.04111223
W        6.37293851       3.18646925      35.63427172
W        7.96617313       4.77970388      37.22742885
W        6.37293851       3.18646925      38.82054983
W        7.96617313       4.77970388      40.41371634
W        6.37293851       3.18646925      42.00693449
W        7.96617313       4.77970388      43.60014956
W        6.37293851       3.18646925      45.19334778
W        7.96617313       4.77970388      46.78652980
W        6.37293851       3.18646925      48.37967130
W        7.96617313       4.77970388      49.97277341
W        6.37293851       3.18646925      51.56592702
W        7.96617313       4.77970388      53.15910064
W        6.37293851       6.37293851       0.79657260
W        7.96617313       7.96617313       2.38974621
W        6.37293851       6.37293851       3.98289982
W        7.96617313       7.96617313       5.57600194
W        6.37293851       6.37293851       7.16914343
W        7.96617313       7.96617313       8.76232545
W        6.37293851       6.37293851      10.35552367
W        7.96617313       7.96617313      11.94873874
W        6.37293851       6.37293851      13.54195690
W        7.96617313       7.96617313      15.13512341
W        6.37293851       6.37293851      16.72824439
W        7.96617313       7.96617313      18.32140151
W        6.37293851       6.37293851      19.91456100
W        7.96617313       7.96617313      21.50772269
W        6.37293851       6.37293851      23.10091978
W        7.96617313       7.96617313      24.69409217
W        6.37293851       6.37293851      29.26158107
W        7.96617313       7.96617313      30.85475345
W        6.37293851       6.37293851      32.44795054
W        7.96617313       7.96617313      34.04111223
W        6.37293851       6.37293851      35.63427172
W        7.96617313       7.96617313      37.22742885
W        6.37293851       6.37293851      38.82054983
W        7.96617313       7.96617313      40.41371634
W        6.37293851       6.37293851      42.00693449
W        7.96617313       7.96617313      43.60014956
W        6.37293851       6.37293851      45.19334778
W        7.96617313       7.96617313      46.78652980
W        6.37293851       6.37293851      48.37967130
W        7.96617313       7.96617313      49.97277341
W        6.37293851       6.37293851      51.56592702
W        7.96617313       7.96617313      53.15910064
288
Lattice="9.559407760912599 1.5551574685670926e-18 -1.2681778328733722e-17 1.5551574685670926e-18 9.559407760912599 -3.802032394954696e-17 -6.226046143134533e-17 -1.9250595450418562e-16 54.05823733706332" Properties=species:S:1:pos:R:3 vacuum_gap_Ang=3.0769230769230766 frame_index=30 pbc="T T T"
W       -0.00000000       0.00000000       0.79657260
W        1.59323463       1.59323463       2.38974621
W       -0.00000000       0.00000000       3.98289982
W        1.59323463       1.59323463       5.57600194
W        0.00000000       0.00000000       7.16914343
W        1.59323463       1.59323463       8.76232545
W       -0.00000000      -0.00000000      10.35552367
W        1.59323463       1.59323463      11.94873874
W        0.00000000      -0.00000000      13.54195690
W        1.59323463       1.59323463      15.13512341
W        0.00000000       0.00000000      16.72824439
W        1.59323463       1.59323463      18.32140151
W        0.00000000       0.00000000      19.91456100
W        1.59323463       1.59323463      21.50772269
W       -0.00000000      -0.00000000      23.10091978
W        1.59323463       1.59323463      24.69409217
W        0.00000000       0.00000000      29.36414517
W        1.59323463       1.59323463      30.95731755
W        0.00000000      -0.00000000      32.55051464
W        1.59323463       1.59323463      34.14367633
W        0.00000000       0.00000000      35.73683582
W        1.59323463       1.59323463      37.32999295
W        0.00000000      -0.00000000      38.92311393
W        1.59323463       1.59323463      40.51628044
W       -0.00000000      -0.00000000      42.10949859
W        1.59323463       1.59323463      43.70271366
W        0.00000000      -0.00000000      45.29591188
W        1.59323463       1.59323463      46.88909390
W        0.00000000      -0.00000000      48.48223540
W        1.59323463       1.59323463      50.07533752
W       -0.00000000      -0.00000000      51.66849112
W        1.59323463       1.59323463      53.26166474
W       -0.00000000       3.18646925       0.79657260
W        1.59323463       4.77970388       2.38974621
W       -0.00000000       3.18646925       3.98289982
W        1.59323463       4.77970388       5.57600194
W        0.00000000       3.18646925       7.16914343
W        1.59323463       4.77970388       8.76232545
W        0.00000000       3.18646925      10.35552367
W        1.59323463       4.77970388      11.94873874
W       -0.00000000       3.18646925      13.54195690
W        1.59323463       4.77970388      15.13512341
W       -0.00000000       3.18646925      16.72824439
W        1.59323463       4.77970388      18.32140151
W        0.00000000       3.18646925      19.91456100
W        1.59323463       4.77970388      21.50772269
W        0.00000000       3.18646925      23.10091978
W        1.59323463       4.77970388      24.69409217
W        0.00000000       3.18646925      29.36414517
W        1.59323463       4.77970388      30.95731755
W       -0.00000000       3.18646925      32.55051464
W        1.59323463       4.77970388      34.14367633
W        0.00000000       3.18646925      35.73683582
W        1.59323463       4.77970388      37.32999295
W        0.00000000       3.18646925      38.92311393
W        1.59323463       4.77970388      40.51628044
W        0.00000000       3.18646925      42.10949859
W        1.59323463       4.77970388      43.70271366
W        0.00000000       3.18646925      45.29591188
W        1.59323463       4.77970388      46.88909390
W        0.00000000       3.18646925      48.48223540
W        1.59323463       4.77970388      50.07533752
W        0.00000000       3.18646925      51.66849112
W        1.59323463       4.77970388      53.26166474
W        0.00000000       6.37293851       0.79657260
W        1.59323463       7.96617313       2.38974621
W       -0.00000000       6.37293851       3.98289982
W        1.59323463       7.96617313       5.57600194
W        0.00000000       6.37293851       7.16914343
W        1.59323463       7.96617313       8.76232545
W       -0.00000000       6.37293851      10.35552367
W        1.59323463       7.96617313      11.94873874
W        0.00000000       6.37293851      13.54195690
W        1.59323463       7.96617313      15.13512341
W       -0.00000000       6.37293851      16.72824439
W        1.59323463       7.96617313      18.32140151
W        0.00000000       6.37293851      19.91456100
W        1.59323463       7.96617313      21.50772269
W        0.00000000       6.37293851      23.10091978
W        1.59323463       7.96617313      24.69409217
W       -0.00000000       6.37293851      29.36414517
W        1.59323463       7.96617313      30.95731755
W        0.00000000       6.37293851      32.55051464
W        1.59323463       7.96617313      34.14367633
W       -0.00000000       6.37293851      35.73683582
W        1.59323463       7.96617313      37.32999295
W        0.00000000       6.37293851      38.92311393
W        1.59323463       7.96617313      40.51628044
W       -0.00000000       6.37293851      42.10949859
W        1.59323463       7.96617313      43.70271366
W        0.00000000       6.37293851      45.29591188
W        1.59323463       7.96617313      46.88909390
W       -0.00000000       6.37293851      48.48223540
W        1.59323463       7.96617313      50.07533752
W       -0.00000000       6.37293851      51.66849112
W        1.59323463       7.96617313      53.26166474
W        3.18646925      -0.00000000       0.79657260
W        4.77970388       1.59323463       2.38974621
W        3.18646925       0.00000000       3.98289982
W        4.77970388       1.59323463       5.57600194
W        3.18646925       0.00000000       7.16914343
W        4.77970388       1.59323463       8.76232545
W        3.18646925       0.00000000      10.35552367
W        4.77970388       1.59323463      11.94873874
W        3.18646925       0.00000000      13.54195690
W        4.77970388       1.59323463      15.13512341
W        3.18646925      -0.00000000      16.72824439
W        4.77970388       1.59323463      18.32140151
W        3.18646925      -0.00000000      19.91456100
W        4.77970388       1.59323463      21.50772269
W        3.18646925       0.00000000      23.10091978
W        4.77970388       1.59323463      24.69409217
W        3.18646925       0.00000000      29.36414517
W        4.77970388       1.59323463      30.95731755
W        3.18646925      -0.00000000      32.55051464
W        4.77970388       1.59323463      34.14367633
W        3.18646925       0.00000000      35.73683582
W        4.77970388       1.59323463      37.32999295
W        3.18646925      -0.00000000      38.92311393
W        4.77970388       1.59323463      40.51628044
W        3.18646925       0.00000000      42.10949859
W        4.77970388       1.59323463      43.70271366
W        3.18646925      -0.00000000      45.29591188
W        4.77970388       1.59323463      46.88909390
W        3.18646925       0.00000000      48.48223540
W        4.77970388       1.59323463      50.07533752
W        3.18646925       0.00000000      51.66849112
W        4.77970388       1.59323463      53.26166474
W        3.18646925       3.18646925       0.79657260
W        4.77970388       4.77970388       2.38974621
W        3.18646925       3.18646925       3.98289982
W        4.77970388       4.77970388       5.57600194
W        3.18646925       3.18646925       7.16914343
W        4.77970388       4.77970388       8.76232545
W        3.18646925       3.18646925      10.35552367
W        4.77970388       4.77970388      11.94873874
W        3.18646925       3.18646925      13.54195690
W        4.77970388       4.77970388      15.13512341
W        3.18646925       3.18646925      16.72824439
W        4.77970388       4.77970388      18.32140151
W        3.18646925       3.18646925      19.91456100
W        4.77970388       4.77970388      21.50772269
W        3.18646925       3.18646925      23.10091978
W        4.77970388       4.77970388      24.69409217
W        3.18646925       3.18646925      29.36414517
W        4.77970388       4.77970388      30.95731755
W        3.18646925       3.18646925      32.55051464
W        4.77970388       4.77970388      34.14367633
W        3.18646925       3.18646925      35.73683582
W        4.77970388       4.77970388      37.32999295
W        3.18646925       3.18646925      38.92311393
W        4.77970388       4.77970388      40.51628044
W        3.18646925       3.18646925      42.10949859
W        4.77970388       4.77970388      43.70271366
W        3.18646925       3.18646925      45.29591188
W        4.77970388       4.77970388      46.88909390
W        3.18646925       3.18646925      48.48223540
W        4.77970388       4.77970388      50.07533752
W        3.18646925       3.18646925      51.66849112
W        4.77970388       4.77970388      53.26166474
W        3.18646925       6.37293851       0.79657260
W        4.77970388       7.96617313       2.38974621
W        3.18646925       6.37293851       3.98289982
W        4.77970388       7.96617313       5.57600194
W        3.18646925       6.37293851       7.16914343
W        4.77970388       7.96617313       8.76232545
W        3.18646925       6.37293851      10.35552367
W        4.77970388       7.96617313      11.94873874
W        3.18646925       6.37293851      13.54195690
W        4.77970388       7.96617313      15.13512341
W        3.18646925       6.37293851      16.72824439
W        4.77970388       7.96617313      18.32140151
W        3.18646925       6.37293851      19.91456100
W        4.77970388       7.96617313      21.50772269
W        3.18646925       6.37293851      23.10091978
W        4.77970388       7.96617313      24.69409217
W        3.18646925       6.37293851      29.36414517
W        4.77970388       7.96617313      30.95731755
W        3.18646925       6.37293851      32.55051464
W        4.77970388       7.96617313      34.14367633
W        3.18646925       6.37293851      35.73683582
W        4.77970388       7.96617313      37.32999295
W        3.18646925       6.37293851      38.92311393
W        4.77970388       7.96617313      40.51628044
W        3.18646925       6.37293851      42.10949859
W        4.77970388       7.96617313      43.70271366
W        3.18646925       6.37293851      45.29591188
W        4.77970388       7.96617313      46.88909390
W        3.18646925       6.37293851      48.48223540
W        4.77970388       7.96617313      50.07533752
W        3.18646925       6.37293851      51.66849112
W        4.77970388       7.96617313      53.26166474
W        6.37293851       0.00000000       0.79657260
W        7.96617313       1.59323463       2.38974621
W        6.37293851       0.00000000       3.98289982
W        7.96617313       1.59323463       5.57600194
W        6.37293851       0.00000000       7.16914343
W        7.96617313       1.59323463       8.76232545
W        6.37293851      -0.00000000      10.35552367
W        7.96617313       1.59323463      11.94873874
W        6.37293851       0.00000000      13.54195690
W        7.96617313       1.59323463      15.13512341
W        6.37293851      -0.00000000      16.72824439
W        7.96617313       1.59323463      18.32140151
W        6.37293851      -0.00000000      19.91456100
W        7.96617313       1.59323463      21.50772269
W        6.37293851       0.00000000      23.10091978
W        7.96617313       1.59323463      24.69409217
W        6.37293851      -0.00000000      29.36414517
W        7.96617313       1.59323463      30.95731755
W        6.37293851       0.00000000      32.55051464
W        7.96617313       1.59323463      34.14367633
W        6.37293851      -0.00000000      35.73683582
W        7.96617313       1.59323463      37.32999295
W        6.37293851       0.00000000      38.92311393
W        7.96617313       1.59323463      40.51628044
W        6.37293851      -0.00000000      42.10949859
W        7.96617313       1.59323463      43.70271366
W        6.37293851      -0.00000000      45.29591188
W        7.96617313       1.59323463      46.88909390
W        6.37293851      -0.00000000      48.48223540
W        7.96617313       1.59323463      50.07533752
W        6.37293851       0.00000000      51.66849112
W        7.96617313       1.59323463      53.26166474
W        6.37293851       3.18646925       0.79657260
W        7.96617313       4.77970388       2.38974621
W        6.37293851       3.18646925       3.98289982
W        7.96617313       4.77970388       5.57600194
W        6.37293851       3.18646925       7.16914343
W        7.96617313       4.77970388       8.76232545
W        6.37293851       3.18646925      10.35552367
W        7.96617313       4.77970388      11.94873874
W        6.37293851       3.18646925      13.54195690
W        7.96617313       4.77970388      15.13512341
W        6.37293851       3.18646925      16.72824439
W        7.96617313       4.77970388      18.32140151
W        6.37293851       3.18646925      19.91456100
W        7.96617313       4.77970388      21.50772269
W        6.37293851       3.18646925      23.10091978
W        7.96617313       4.77970388      24.69409217
W        6.37293851       3.18646925      29.36414517
W        7.96617313       4.77970388      30.95731755
W        6.37293851       3.18646925      32.55051464
W        7.96617313       4.77970388      34.14367633
W        6.37293851       3.18646925      35.73683582
W        7.96617313       4.77970388      37.32999295
W        6.37293851       3.18646925      38.92311393
W        7.96617313       4.77970388      40.51628044
W        6.37293851       3.18646925      42.10949859
W        7.96617313       4.77970388      43.70271366
W        6.37293851       3.18646925      45.29591188
W        7.96617313       4.77970388      46.88909390
W        6.37293851       3.18646925      48.48223540
W        7.96617313       4.77970388      50.07533752
W        6.37293851       3.18646925      51.66849112
W        7.96617313       4.77970388      53.26166474
W        6.37293851       6.37293851       0.79657260
W        7.96617313       7.96617313       2.38974621
W        6.37293851       6.37293851       3.98289982
W        7.96617313       7.96617313       5.57600194
W        6.37293851       6.37293851       7.16914343
W        7.96617313       7.96617313       8.76232545
W        6.37293851       6.37293851      10.35552367
W        7.96617313       7.96617313      11.94873874
W        6.37293851       6.37293851      13.54195690
W        7.96617313       7.96617313      15.13512341
W        6.37293851       6.37293851      16.72824439
W        7.96617313       7.96617313      18.32140151
W        6.37293851       6.37293851      19.91456100
W        7.96617313       7.96617313      21.50772269
W        6.37293851       6.37293851      23.10091978
W        7.96617313       7.96617313      24.69409217
W        6.37293851       6.37293851      29.36414517
W        7.96617313       7.96617313      30.95731755
W        6.37293851       6.37293851      32.55051464
W        7.96617313       7.96617313      34.14367633
W        6.37293851       6.37293851      35.73683582
W        7.96617313       7.96617313      37.32999295
W        6.37293851       6.37293851      38.92311393
W        7.96617313       7.96617313      40.51628044
W        6.37293851       6.37293851      42.10949859
W        7.96617313       7.96617313      43.70271366
W        6.37293851       6.37293851      45.29591188
W        7.96617313       7.96617313      46.88909390
W        6.37293851       6.37293851      48.48223540
W        7.96617313       7.96617313      50.07533752
W        6.37293851       6.37293851      51.66849112
W        7.96617313       7.96617313      53.26166474
288
Lattice="9.559407760912599 1.5551574685670926e-18 -1.2681778328733722e-17 1.5551574685670926e-18 9.559407760912599 -3.802032394954696e-17 -6.226046143134533e-17 -1.9250595450418562e-16 54.16080143962742" Properties=species:S:1:pos:R:3 vacuum_gap_Ang=3.1794871794871793 frame_index=31 pbc="T T T"
W       -0.00000000       0.00000000       0.79657260
W        1.59323463       1.59323463       2.38974621
W       -0.00000000       0.00000000       3.98289982
W        1.59323463       1.59323463       5.57600194
W        0.00000000       0.00000000       7.16914343
W        1.59323463       1.59323463       8.76232545
W       -0.00000000      -0.00000000      10.35552367
W        1.59323463       1.59323463      11.94873874
W        0.00000000      -0.00000000      13.54195690
W        1.59323463       1.59323463      15.13512341
W        0.00000000       0.00000000      16.72824439
W        1.59323463       1.59323463      18.32140151
W        0.00000000       0.00000000      19.91456100
W        1.59323463       1.59323463      21.50772269
W       -0.00000000      -0.00000000      23.10091978
W        1.59323463       1.59323463      24.69409217
W        0.00000000       0.00000000      29.46670927
W        1.59323463       1.59323463      31.05988165
W        0.00000000      -0.00000000      32.65307875
W        1.59323463       1.59323463      34.24624044
W        0.00000000       0.00000000      35.83939993
W        1.59323463       1.59323463      37.43255705
W        0.00000000      -0.00000000      39.02567803
W        1.59323463       1.59323463      40.61884454
W       -0.00000000      -0.00000000      42.21206270
W        1.59323463       1.59323463      43.80527776
W        0.00000000      -0.00000000      45.39847599
W        1.59323463       1.59323463      46.99165801
W        0.00000000      -0.00000000      48.58479950
W        1.59323463       1.59323463      50.17790162
W       -0.00000000      -0.00000000      51.77105523
W        1.59323463       1.59323463      53.36422884
W       -0.00000000       3.18646925       0.79657260
W        1.59323463       4.77970388       2.38974621
W       -0.00000000       3.18646925       3.98289982
W        1.59323463       4.77970388       5.57600194
W        0.00000000       3.18646925       7.16914343
W        1.59323463       4.77970388       8.76232545
W        0.00000000       3.18646925      10.35552367
W        1.59323463       4.77970388      11.94873874
W       -0.00000000       3.18646925      13.54195690
W        1.59323463       4.77970388      15.13512341
W       -0.00000000       3.18646925      16.72824439
W        1.59323463       4.77970388      18.32140151
W        0.00000000       3.18646925      19.91456100
W        1.59323463       4.77970388      21.50772269
W        0.00000000       3.18646925      23.10091978
W        1.59323463       4.77970388      24.69409217
W        0.00000000       3.18646925      29.46670927
W        1.59323463       4.77970388      31.05988165
W       -0.00000000       3.18646925      32.65307875
W        1.59323463       4.77970388      34.24624044
W        0.00000000       3.18646925      35.83939993
W        1.59323463       4.77970388      37.43255705
W        0.00000000       3.18646925      39.02567803
W        1.59323463       4.77970388      40.61884454
W        0.00000000       3.18646925      42.21206270
W        1.59323463       4.77970388      43.80527776
W        0.00000000       3.18646925      45.39847599
W        1.59323463       4.77970388      46.99165801
W        0.00000000       3.18646925      48.58479950
W        1.59323463       4.77970388      50.17790162
W        0.00000000       3.18646925      51.77105523
W        1.59323463       4.77970388      53.36422884
W        0.00000000       6.37293851       0.79657260
W        1.59323463       7.96617313       2.38974621
W       -0.00000000       6.37293851       3.98289982
W        1.59323463       7.96617313       5.57600194
W        0.00000000       6.37293851       7.16914343
W        1.59323463       7.96617313       8.76232545
W       -0.00000000       6.37293851      10.35552367
W        1.59323463       7.96617313      11.94873874
W        0.00000000       6.37293851      13.54195690
W        1.59323463       7.96617313      15.13512341
W       -0.00000000       6.37293851      16.72824439
W        1.59323463       7.96617313      18.32140151
W        0.00000000       6.37293851      19.91456100
W        1.59323463       7.96617313      21.50772269
W        0.00000000       6.37293851      23.10091978
W        1.59323463       7.96617313      24.69409217
W       -0.00000000       6.37293851      29.46670927
W        1.59323463       7.96617313      31.05988165
W        0.00000000       6.37293851      32.65307875
W        1.59323463       7.96617313      34.24624044
W       -0.00000000       6.37293851      35.83939993
W        1.59323463       7.96617313      37.43255705
W        0.00000000       6.37293851      39.02567803
W        1.59323463       7.96617313      40.61884454
W       -0.00000000       6.37293851      42.21206270
W        1.59323463       7.96617313      43.80527776
W        0.00000000       6.37293851      45.39847599
W        1.59323463       7.96617313      46.99165801
W       -0.00000000       6.37293851      48.58479950
W        1.59323463       7.96617313      50.17790162
W       -0.00000000       6.37293851      51.77105523
W        1.59323463       7.96617313      53.36422884
W        3.18646925      -0.00000000       0.79657260
W        4.77970388       1.59323463       2.38974621
W        3.18646925       0.00000000       3.98289982
W        4.77970388       1.59323463       5.57600194
W        3.18646925       0.00000000       7.16914343
W        4.77970388       1.59323463       8.76232545
W        3.18646925       0.00000000      10.35552367
W        4.77970388       1.59323463      11.94873874
W        3.18646925       0.00000000      13.54195690
W        4.77970388       1.59323463      15.13512341
W        3.18646925      -0.00000000      16.72824439
W        4.77970388       1.59323463      18.32140151
W        3.18646925      -0.00000000      19.91456100
W        4.77970388       1.59323463      21.50772269
W        3.18646925       0.00000000      23.10091978
W        4.77970388       1.59323463      24.69409217
W        3.18646925       0.00000000      29.46670927
W        4.77970388       1.59323463      31.05988165
W        3.18646925      -0.00000000      32.65307875
W        4.77970388       1.59323463      34.24624044
W        3.18646925       0.00000000      35.83939993
W        4.77970388       1.59323463      37.43255705
W        3.18646925      -0.00000000      39.02567803
W        4.77970388       1.59323463      40.61884454
W        3.18646925       0.00000000      42.21206270
W        4.77970388       1.59323463      43.80527776
W        3.18646925      -0.00000000      45.39847599
W        4.77970388       1.59323463      46.99165801
W        3.18646925       0.00000000      48.58479950
W        4.77970388       1.59323463      50.17790162
W        3.18646925       0.00000000      51.77105523
W        4.77970388       1.59323463      53.36422884
W        3.18646925       3.18646925       0.79657260
W        4.77970388       4.77970388       2.38974621
W        3.18646925       3.18646925       3.98289982
W        4.77970388       4.77970388       5.57600194
W        3.18646925       3.18646925       7.16914343
W        4.77970388       4.77970388       8.76232545
W        3.18646925       3.18646925      10.35552367
W        4.77970388       4.77970388      11.94873874
W        3.18646925       3.18646925      13.54195690
W        4.77970388       4.77970388      15.13512341
W        3.18646925       3.18646925      16.72824439
W        4.77970388       4.77970388      18.32140151
W        3.18646925       3.18646925      19.91456100
W        4.77970388       4.77970388      21.50772269
W        3.18646925       3.18646925      23.10091978
W        4.77970388       4.77970388      24.69409217
W        3.18646925       3.18646925      29.46670927
W        4.77970388       4.77970388      31.05988165
W        3.18646925       3.18646925      32.65307875
W        4.77970388       4.77970388      34.24624044
W        3.18646925       3.18646925      35.83939993
W        4.77970388       4.77970388      37.43255705
W        3.18646925       3.18646925      39.02567803
W        4.77970388       4.77970388      40.61884454
W        3.18646925       3.18646925      42.21206270
W        4.77970388       4.77970388      43.80527776
W        3.18646925       3.18646925      45.39847599
W        4.77970388       4.77970388      46.99165801
W        3.18646925       3.18646925      48.58479950
W        4.77970388       4.77970388      50.17790162
W        3.18646925       3.18646925      51.77105523
W        4.77970388       4.77970388      53.36422884
W        3.18646925       6.37293851       0.79657260
W        4.77970388       7.96617313       2.38974621
W        3.18646925       6.37293851       3.98289982
W        4.77970388       7.96617313       5.57600194
W        3.18646925       6.37293851       7.16914343
W        4.77970388       7.96617313       8.76232545
W        3.18646925       6.37293851      10.35552367
W        4.77970388       7.96617313      11.94873874
W        3.18646925       6.37293851      13.54195690
W        4.77970388       7.96617313      15.13512341
W        3.18646925       6.37293851      16.72824439
W        4.77970388       7.96617313      18.32140151
W        3.18646925       6.37293851      19.91456100
W        4.77970388       7.96617313      21.50772269
W        3.18646925       6.37293851      23.10091978
W        4.77970388       7.96617313      24.69409217
W        3.18646925       6.37293851      29.46670927
W        4.77970388       7.96617313      31.05988165
W        3.18646925       6.37293851      32.65307875
W        4.77970388       7.96617313      34.24624044
W        3.18646925       6.37293851      35.83939993
W        4.77970388       7.96617313      37.43255705
W        3.18646925       6.37293851      39.02567803
W        4.77970388       7.96617313      40.61884454
W        3.18646925       6.37293851      42.21206270
W        4.77970388       7.96617313      43.80527776
W        3.18646925       6.37293851      45.39847599
W        4.77970388       7.96617313      46.99165801
W        3.18646925       6.37293851      48.58479950
W        4.77970388       7.96617313      50.17790162
W        3.18646925       6.37293851      51.77105523
W        4.77970388       7.96617313      53.36422884
W        6.37293851       0.00000000       0.79657260
W        7.96617313       1.59323463       2.38974621
W        6.37293851       0.00000000       3.98289982
W        7.96617313       1.59323463       5.57600194
W        6.37293851       0.00000000       7.16914343
W        7.96617313       1.59323463       8.76232545
W        6.37293851      -0.00000000      10.35552367
W        7.96617313       1.59323463      11.94873874
W        6.37293851       0.00000000      13.54195690
W        7.96617313       1.59323463      15.13512341
W        6.37293851      -0.00000000      16.72824439
W        7.96617313       1.59323463      18.32140151
W        6.37293851      -0.00000000      19.91456100
W        7.96617313       1.59323463      21.50772269
W        6.37293851       0.00000000      23.10091978
W        7.96617313       1.59323463      24.69409217
W        6.37293851      -0.00000000      29.46670927
W        7.96617313       1.59323463      31.05988165
W        6.37293851       0.00000000      32.65307875
W        7.96617313       1.59323463      34.24624044
W        6.37293851      -0.00000000      35.83939993
W        7.96617313       1.59323463      37.43255705
W        6.37293851       0.00000000      39.02567803
W        7.96617313       1.59323463      40.61884454
W        6.37293851      -0.00000000      42.21206270
W        7.96617313       1.59323463      43.80527776
W        6.37293851      -0.00000000      45.39847599
W        7.96617313       1.59323463      46.99165801
W        6.37293851      -0.00000000      48.58479950
W        7.96617313       1.59323463      50.17790162
W        6.37293851       0.00000000      51.77105523
W        7.96617313       1.59323463      53.36422884
W        6.37293851       3.18646925       0.79657260
W        7.96617313       4.77970388       2.38974621
W        6.37293851       3.18646925       3.98289982
W        7.96617313       4.77970388       5.57600194
W        6.37293851       3.18646925       7.16914343
W        7.96617313       4.77970388       8.76232545
W        6.37293851       3.18646925      10.35552367
W        7.96617313       4.77970388      11.94873874
W        6.37293851       3.18646925      13.54195690
W        7.96617313       4.77970388      15.13512341
W        6.37293851       3.18646925      16.72824439
W        7.96617313       4.77970388      18.32140151
W        6.37293851       3.18646925      19.91456100
W        7.96617313       4.77970388      21.50772269
W        6.37293851       3.18646925      23.10091978
W        7.96617313       4.77970388      24.69409217
W        6.37293851       3.18646925      29.46670927
W        7.96617313       4.77970388      31.05988165
W        6.37293851       3.18646925      32.65307875
W        7.96617313       4.77970388      34.24624044
W        6.37293851       3.18646925      35.83939993
W        7.96617313       4.77970388      37.43255705
W        6.37293851       3.18646925      39.02567803
W        7.96617313       4.77970388      40.61884454
W        6.37293851       3.18646925      42.21206270
W        7.96617313       4.77970388      43.80527776
W        6.37293851       3.18646925      45.39847599
W        7.96617313       4.77970388      46.99165801
W        6.37293851       3.18646925      48.58479950
W        7.96617313       4.77970388      50.17790162
W        6.37293851       3.18646925      51.77105523
W        7.96617313       4.77970388      53.36422884
W        6.37293851       6.37293851       0.79657260
W        7.96617313       7.96617313       2.38974621
W        6.37293851       6.37293851       3.98289982
W        7.96617313       7.96617313       5.57600194
W        6.37293851       6.37293851       7.16914343
W        7.96617313       7.96617313       8.76232545
W        6.37293851       6.37293851      10.35552367
W        7.96617313       7.96617313      11.94873874
W        6.37293851       6.37293851      13.54195690
W        7.96617313       7.96617313      15.13512341
W        6.37293851       6.37293851      16.72824439
W        7.96617313       7.96617313      18.32140151
W        6.37293851       6.37293851      19.91456100
W        7.96617313       7.96617313      21.50772269
W        6.37293851       6.37293851      23.10091978
W        7.96617313       7.96617313      24.69409217
W        6.37293851       6.37293851      29.46670927
W        7.96617313       7.96617313      31.05988165
W        6.37293851       6.37293851      32.65307875
W        7.96617313       7.96617313      34.24624044
W        6.37293851       6.37293851      35.83939993
W        7.96617313       7.96617313      37.43255705
W        6.37293851       6.37293851      39.02567803
W        7.96617313       7.96617313      40.61884454
W        6.37293851       6.37293851      42.21206270
W        7.96617313       7.96617313      43.80527776
W        6.37293851       6.37293851      45.39847599
W        7.96617313       7.96617313      46.99165801
W        6.37293851       6.37293851      48.58479950
W        7.96617313       7.96617313      50.17790162
W        6.37293851       6.37293851      51.77105523
W        7.96617313       7.96617313      53.36422884
288
Lattice="9.559407760912599 1.5551574685670926e-18 -1.2681778328733722e-17 1.5551574685670926e-18 9.559407760912599 -3.802032394954696e-17 -6.226046143134533e-17 -1.9250595450418562e-16 54.26336554219152" Properties=species:S:1:pos:R:3 vacuum_gap_Ang=3.282051282051282 frame_index=32 pbc="T T T"
W       -0.00000000       0.00000000       0.79657260
W        1.59323463       1.59323463       2.38974621
W       -0.00000000       0.00000000       3.98289982
W        1.59323463       1.59323463       5.57600194
W        0.00000000       0.00000000       7.16914343
W        1.59323463       1.59323463       8.76232545
W       -0.00000000      -0.00000000      10.35552367
W        1.59323463       1.59323463      11.94873874
W        0.00000000      -0.00000000      13.54195690
W        1.59323463       1.59323463      15.13512341
W        0.00000000       0.00000000      16.72824439
W        1.59323463       1.59323463      18.32140151
W        0.00000000       0.00000000      19.91456100
W        1.59323463       1.59323463      21.50772269
W       -0.00000000      -0.00000000      23.10091978
W        1.59323463       1.59323463      24.69409217
W        0.00000000       0.00000000      29.56927338
W        1.59323463       1.59323463      31.16244576
W        0.00000000      -0.00000000      32.75564285
W        1.59323463       1.59323463      34.34880454
W        0.00000000       0.00000000      35.94196403
W        1.59323463       1.59323463      37.53512115
W        0.00000000      -0.00000000      39.12824214
W        1.59323463       1.59323463      40.72140865
W       -0.00000000      -0.00000000      42.31462680
W        1.59323463       1.59323463      43.90784187
W        0.00000000      -0.00000000      45.50104009
W        1.59323463       1.59323463      47.09422211
W        0.00000000      -0.00000000      48.68736360
W        1.59323463       1.59323463      50.28046572
W       -0.00000000      -0.00000000      51.87361933
W        1.59323463       1.59323463      53.46679294
W       -0.00000000       3.18646925       0.79657260
W        1.59323463       4.77970388       2.38974621
W       -0.00000000       3.18646925       3.98289982
W        1.59323463       4.77970388       5.57600194
W        0.00000000       3.18646925       7.16914343
W        1.59323463       4.77970388       8.76232545
W        0.00000000       3.18646925      10.35552367
W        1.59323463       4.77970388      11.94873874
W       -0.00000000       3.18646925      13.54195690
W        1.59323463       4.77970388      15.13512341
W       -0.00000000       3.18646925      16.72824439
W        1.59323463       4.77970388      18.32140151
W        0.00000000       3.18646925      19.91456100
W        1.59323463       4.77970388      21.50772269
W        0.00000000       3.18646925      23.10091978
W        1.59323463       4.77970388      24.69409217
W        0.00000000       3.18646925      29.56927338
W        1.59323463       4.77970388      31.16244576
W       -0.00000000       3.18646925      32.75564285
W        1.59323463       4.77970388      34.34880454
W        0.00000000       3.18646925      35.94196403
W        1.59323463       4.77970388      37.53512115
W        0.00000000       3.18646925      39.12824214
W        1.59323463       4.77970388      40.72140865
W        0.00000000       3.18646925      42.31462680
W        1.59323463       4.77970388      43.90784187
W        0.00000000       3.18646925      45.50104009
W        1.59323463       4.77970388      47.09422211
W        0.00000000       3.18646925      48.68736360
W        1.59323463       4.77970388      50.28046572
W        0.00000000       3.18646925      51.87361933
W        1.59323463       4.77970388      53.46679294
W        0.00000000       6.37293851       0.79657260
W        1.59323463       7.96617313       2.38974621
W       -0.00000000       6.37293851       3.98289982
W        1.59323463       7.96617313       5.57600194
W        0.00000000       6.37293851       7.16914343
W        1.59323463       7.96617313       8.76232545
W       -0.00000000       6.37293851      10.35552367
W        1.59323463       7.96617313      11.94873874
W        0.00000000       6.37293851      13.54195690
W        1.59323463       7.96617313      15.13512341
W       -0.00000000       6.37293851      16.72824439
W        1.59323463       7.96617313      18.32140151
W        0.00000000       6.37293851      19.91456100
W        1.59323463       7.96617313      21.50772269
W        0.00000000       6.37293851      23.10091978
W        1.59323463       7.96617313      24.69409217
W       -0.00000000       6.37293851      29.56927338
W        1.59323463       7.96617313      31.16244576
W        0.00000000       6.37293851      32.75564285
W        1.59323463       7.96617313      34.34880454
W       -0.00000000       6.37293851      35.94196403
W        1.59323463       7.96617313      37.53512115
W        0.00000000       6.37293851      39.12824214
W        1.59323463       7.96617313      40.72140865
W       -0.00000000       6.37293851      42.31462680
W        1.59323463       7.96617313      43.90784187
W        0.00000000       6.37293851      45.50104009
W        1.59323463       7.96617313      47.09422211
W       -0.00000000       6.37293851      48.68736360
W        1.59323463       7.96617313      50.28046572
W       -0.00000000       6.37293851      51.87361933
W        1.59323463       7.96617313      53.46679294
W        3.18646925      -0.00000000       0.79657260
W        4.77970388       1.59323463       2.38974621
W        3.18646925       0.00000000       3.98289982
W        4.77970388       1.59323463       5.57600194
W        3.18646925       0.00000000       7.16914343
W        4.77970388       1.59323463       8.76232545
W        3.18646925       0.00000000      10.35552367
W        4.77970388       1.59323463      11.94873874
W        3.18646925       0.00000000      13.54195690
W        4.77970388       1.59323463      15.13512341
W        3.18646925      -0.00000000      16.72824439
W        4.77970388       1.59323463      18.32140151
W        3.18646925      -0.00000000      19.91456100
W        4.77970388       1.59323463      21.50772269
W        3.18646925       0.00000000      23.10091978
W        4.77970388       1.59323463      24.69409217
W        3.18646925       0.00000000      29.56927338
W        4.77970388       1.59323463      31.16244576
W        3.18646925      -0.00000000      32.75564285
W        4.77970388       1.59323463      34.34880454
W        3.18646925       0.00000000      35.94196403
W        4.77970388       1.59323463      37.53512115
W        3.18646925      -0.00000000      39.12824214
W        4.77970388       1.59323463      40.72140865
W        3.18646925       0.00000000      42.31462680
W        4.77970388       1.59323463      43.90784187
W        3.18646925      -0.00000000      45.50104009
W        4.77970388       1.59323463      47.09422211
W        3.18646925       0.00000000      48.68736360
W        4.77970388       1.59323463      50.28046572
W        3.18646925       0.00000000      51.87361933
W        4.77970388       1.59323463      53.46679294
W        3.18646925       3.18646925       0.79657260
W        4.77970388       4.77970388       2.38974621
W        3.18646925       3.18646925       3.98289982
W        4.77970388       4.77970388       5.57600194
W        3.18646925       3.18646925       7.16914343
W        4.77970388       4.77970388       8.76232545
W        3.18646925       3.18646925      10.35552367
W        4.77970388       4.77970388      11.94873874
W        3.18646925       3.18646925      13.54195690
W        4.77970388       4.77970388      15.13512341
W        3.18646925       3.18646925      16.72824439
W        4.77970388       4.77970388      18.32140151
W        3.18646925       3.18646925      19.91456100
W        4.77970388       4.77970388      21.50772269
W        3.18646925       3.18646925      23.10091978
W        4.77970388       4.77970388      24.69409217
W        3.18646925       3.18646925      29.56927338
W        4.77970388       4.77970388      31.16244576
W        3.18646925       3.18646925      32.75564285
W        4.77970388       4.77970388      34.34880454
W        3.18646925       3.18646925      35.94196403
W        4.77970388       4.77970388      37.53512115
W        3.18646925       3.18646925      39.12824214
W        4.77970388       4.77970388      40.72140865
W        3.18646925       3.18646925      42.31462680
W        4.77970388       4.77970388      43.90784187
W        3.18646925       3.18646925      45.50104009
W        4.77970388       4.77970388      47.09422211
W        3.18646925       3.18646925      48.68736360
W        4.77970388       4.77970388      50.28046572
W        3.18646925       3.18646925      51.87361933
W        4.77970388       4.77970388      53.46679294
W        3.18646925       6.37293851       0.79657260
W        4.77970388       7.96617313       2.38974621
W        3.18646925       6.37293851       3.98289982
W        4.77970388       7.96617313       5.57600194
W        3.18646925       6.37293851       7.16914343
W        4.77970388       7.96617313       8.76232545
W        3.18646925       6.37293851      10.35552367
W        4.77970388       7.96617313      11.94873874
W        3.18646925       6.37293851      13.54195690
W        4.77970388       7.96617313      15.13512341
W        3.18646925       6.37293851      16.72824439
W        4.77970388       7.96617313      18.32140151
W        3.18646925       6.37293851      19.91456100
W        4.77970388       7.96617313      21.50772269
W        3.18646925       6.37293851      23.10091978
W        4.77970388       7.96617313      24.69409217
W        3.18646925       6.37293851      29.56927338
W        4.77970388       7.96617313      31.16244576
W        3.18646925       6.37293851      32.75564285
W        4.77970388       7.96617313      34.34880454
W        3.18646925       6.37293851      35.94196403
W        4.77970388       7.96617313      37.53512115
W        3.18646925       6.37293851      39.12824214
W        4.77970388       7.96617313      40.72140865
W        3.18646925       6.37293851      42.31462680
W        4.77970388       7.96617313      43.90784187
W        3.18646925       6.37293851      45.50104009
W        4.77970388       7.96617313      47.09422211
W        3.18646925       6.37293851      48.68736360
W        4.77970388       7.96617313      50.28046572
W        3.18646925       6.37293851      51.87361933
W        4.77970388       7.96617313      53.46679294
W        6.37293851       0.00000000       0.79657260
W        7.96617313       1.59323463       2.38974621
W        6.37293851       0.00000000       3.98289982
W        7.96617313       1.59323463       5.57600194
W        6.37293851       0.00000000       7.16914343
W        7.96617313       1.59323463       8.76232545
W        6.37293851      -0.00000000      10.35552367
W        7.96617313       1.59323463      11.94873874
W        6.37293851       0.00000000      13.54195690
W        7.96617313       1.59323463      15.13512341
W        6.37293851      -0.00000000      16.72824439
W        7.96617313       1.59323463      18.32140151
W        6.37293851      -0.00000000      19.91456100
W        7.96617313       1.59323463      21.50772269
W        6.37293851       0.00000000      23.10091978
W        7.96617313       1.59323463      24.69409217
W        6.37293851      -0.00000000      29.56927338
W        7.96617313       1.59323463      31.16244576
W        6.37293851       0.00000000      32.75564285
W        7.96617313       1.59323463      34.34880454
W        6.37293851      -0.00000000      35.94196403
W        7.96617313       1.59323463      37.53512115
W        6.37293851       0.00000000      39.12824214
W        7.96617313       1.59323463      40.72140865
W        6.37293851      -0.00000000      42.31462680
W        7.96617313       1.59323463      43.90784187
W        6.37293851      -0.00000000      45.50104009
W        7.96617313       1.59323463      47.09422211
W        6.37293851      -0.00000000      48.68736360
W        7.96617313       1.59323463      50.28046572
W        6.37293851       0.00000000      51.87361933
W        7.96617313       1.59323463      53.46679294
W        6.37293851       3.18646925       0.79657260
W        7.96617313       4.77970388       2.38974621
W        6.37293851       3.18646925       3.98289982
W        7.96617313       4.77970388       5.57600194
W        6.37293851       3.18646925       7.16914343
W        7.96617313       4.77970388       8.76232545
W        6.37293851       3.18646925      10.35552367
W        7.96617313       4.77970388      11.94873874
W        6.37293851       3.18646925      13.54195690
W        7.96617313       4.77970388      15.13512341
W        6.37293851       3.18646925      16.72824439
W        7.96617313       4.77970388      18.32140151
W        6.37293851       3.18646925      19.91456100
W        7.96617313       4.77970388      21.50772269
W        6.37293851       3.18646925      23.10091978
W        7.96617313       4.77970388      24.69409217
W        6.37293851       3.18646925      29.56927338
W        7.96617313       4.77970388      31.16244576
W        6.37293851       3.18646925      32.75564285
W        7.96617313       4.77970388      34.34880454
W        6.37293851       3.18646925      35.94196403
W        7.96617313       4.77970388      37.53512115
W        6.37293851       3.18646925      39.12824214
W        7.96617313       4.77970388      40.72140865
W        6.37293851       3.18646925      42.31462680
W        7.96617313       4.77970388      43.90784187
W        6.37293851       3.18646925      45.50104009
W        7.96617313       4.77970388      47.09422211
W        6.37293851       3.18646925      48.68736360
W        7.96617313       4.77970388      50.28046572
W        6.37293851       3.18646925      51.87361933
W        7.96617313       4.77970388      53.46679294
W        6.37293851       6.37293851       0.79657260
W        7.96617313       7.96617313       2.38974621
W        6.37293851       6.37293851       3.98289982
W        7.96617313       7.96617313       5.57600194
W        6.37293851       6.37293851       7.16914343
W        7.96617313       7.96617313       8.76232545
W        6.37293851       6.37293851      10.35552367
W        7.96617313       7.96617313      11.94873874
W        6.37293851       6.37293851      13.54195690
W        7.96617313       7.96617313      15.13512341
W        6.37293851       6.37293851      16.72824439
W        7.96617313       7.96617313      18.32140151
W        6.37293851       6.37293851      19.91456100
W        7.96617313       7.96617313      21.50772269
W        6.37293851       6.37293851      23.10091978
W        7.96617313       7.96617313      24.69409217
W        6.37293851       6.37293851      29.56927338
W        7.96617313       7.96617313      31.16244576
W        6.37293851       6.37293851      32.75564285
W        7.96617313       7.96617313      34.34880454
W        6.37293851       6.37293851      35.94196403
W        7.96617313       7.96617313      37.53512115
W        6.37293851       6.37293851      39.12824214
W        7.96617313       7.96617313      40.72140865
W        6.37293851       6.37293851      42.31462680
W        7.96617313       7.96617313      43.90784187
W        6.37293851       6.37293851      45.50104009
W        7.96617313       7.96617313      47.09422211
W        6.37293851       6.37293851      48.68736360
W        7.96617313       7.96617313      50.28046572
W        6.37293851       6.37293851      51.87361933
W        7.96617313       7.96617313      53.46679294
288
Lattice="9.559407760912599 1.5551574685670926e-18 -1.2681778328733722e-17 1.5551574685670926e-18 9.559407760912599 -3.802032394954696e-17 -6.226046143134533e-17 -1.9250595450418562e-16 54.365929644755624" Properties=species:S:1:pos:R:3 vacuum_gap_Ang=3.3846153846153846 frame_index=33 pbc="T T T"
W       -0.00000000       0.00000000       0.79657260
W        1.59323463       1.59323463       2.38974621
W       -0.00000000       0.00000000       3.98289982
W        1.59323463       1.59323463       5.57600194
W        0.00000000       0.00000000       7.16914343
W        1.59323463       1.59323463       8.76232545
W       -0.00000000      -0.00000000      10.35552367
W        1.59323463       1.59323463      11.94873874
W        0.00000000      -0.00000000      13.54195690
W        1.59323463       1.59323463      15.13512341
W        0.00000000       0.00000000      16.72824439
W        1.59323463       1.59323463      18.32140151
W        0.00000000       0.00000000      19.91456100
W        1.59323463       1.59323463      21.50772269
W       -0.00000000      -0.00000000      23.10091978
W        1.59323463       1.59323463      24.69409217
W        0.00000000       0.00000000      29.67183748
W        1.59323463       1.59323463      31.26500986
W        0.00000000      -0.00000000      32.85820695
W        1.59323463       1.59323463      34.45136864
W        0.00000000       0.00000000      36.04452813
W        1.59323463       1.59323463      37.63768526
W        0.00000000      -0.00000000      39.23080624
W        1.59323463       1.59323463      40.82397275
W       -0.00000000      -0.00000000      42.41719090
W        1.59323463       1.59323463      44.01040597
W        0.00000000      -0.00000000      45.60360419
W        1.59323463       1.59323463      47.19678621
W        0.00000000      -0.00000000      48.78992771
W        1.59323463       1.59323463      50.38302982
W       -0.00000000      -0.00000000      51.97618343
W        1.59323463       1.59323463      53.56935705
W       -0.00000000       3.18646925       0.79657260
W        1.59323463       4.77970388       2.38974621
W       -0.00000000       3.18646925       3.98289982
W        1.59323463       4.77970388       5.57600194
W        0.00000000       3.18646925       7.16914343
W        1.59323463       4.77970388       8.76232545
W        0.00000000       3.18646925      10.35552367
W        1.59323463       4.77970388      11.94873874
W       -0.00000000       3.18646925      13.54195690
W        1.59323463       4.77970388      15.13512341
W       -0.00000000       3.18646925      16.72824439
W        1.59323463       4.77970388      18.32140151
W        0.00000000       3.18646925      19.91456100
W        1.59323463       4.77970388      21.50772269
W        0.00000000       3.18646925      23.10091978
W        1.59323463       4.77970388      24.69409217
W        0.00000000       3.18646925      29.67183748
W        1.59323463       4.77970388      31.26500986
W       -0.00000000       3.18646925      32.85820695
W        1.59323463       4.77970388      34.45136864
W        0.00000000       3.18646925      36.04452813
W        1.59323463       4.77970388      37.63768526
W        0.00000000       3.18646925      39.23080624
W        1.59323463       4.77970388      40.82397275
W        0.00000000       3.18646925      42.41719090
W        1.59323463       4.77970388      44.01040597
W        0.00000000       3.18646925      45.60360419
W        1.59323463       4.77970388      47.19678621
W        0.00000000       3.18646925      48.78992771
W        1.59323463       4.77970388      50.38302982
W        0.00000000       3.18646925      51.97618343
W        1.59323463       4.77970388      53.56935705
W        0.00000000       6.37293851       0.79657260
W        1.59323463       7.96617313       2.38974621
W       -0.00000000       6.37293851       3.98289982
W        1.59323463       7.96617313       5.57600194
W        0.00000000       6.37293851       7.16914343
W        1.59323463       7.96617313       8.76232545
W       -0.00000000       6.37293851      10.35552367
W        1.59323463       7.96617313      11.94873874
W        0.00000000       6.37293851      13.54195690
W        1.59323463       7.96617313      15.13512341
W       -0.00000000       6.37293851      16.72824439
W        1.59323463       7.96617313      18.32140151
W        0.00000000       6.37293851      19.91456100
W        1.59323463       7.96617313      21.50772269
W        0.00000000       6.37293851      23.10091978
W        1.59323463       7.96617313      24.69409217
W       -0.00000000       6.37293851      29.67183748
W        1.59323463       7.96617313      31.26500986
W        0.00000000       6.37293851      32.85820695
W        1.59323463       7.96617313      34.45136864
W       -0.00000000       6.37293851      36.04452813
W        1.59323463       7.96617313      37.63768526
W        0.00000000       6.37293851      39.23080624
W        1.59323463       7.96617313      40.82397275
W       -0.00000000       6.37293851      42.41719090
W        1.59323463       7.96617313      44.01040597
W        0.00000000       6.37293851      45.60360419
W        1.59323463       7.96617313      47.19678621
W       -0.00000000       6.37293851      48.78992771
W        1.59323463       7.96617313      50.38302982
W       -0.00000000       6.37293851      51.97618343
W        1.59323463       7.96617313      53.56935705
W        3.18646925      -0.00000000       0.79657260
W        4.77970388       1.59323463       2.38974621
W        3.18646925       0.00000000       3.98289982
W        4.77970388       1.59323463       5.57600194
W        3.18646925       0.00000000       7.16914343
W        4.77970388       1.59323463       8.76232545
W        3.18646925       0.00000000      10.35552367
W        4.77970388       1.59323463      11.94873874
W        3.18646925       0.00000000      13.54195690
W        4.77970388       1.59323463      15.13512341
W        3.18646925      -0.00000000      16.72824439
W        4.77970388       1.59323463      18.32140151
W        3.18646925      -0.00000000      19.91456100
W        4.77970388       1.59323463      21.50772269
W        3.18646925       0.00000000      23.10091978
W        4.77970388       1.59323463      24.69409217
W        3.18646925       0.00000000      29.67183748
W        4.77970388       1.59323463      31.26500986
W        3.18646925      -0.00000000      32.85820695
W        4.77970388       1.59323463      34.45136864
W        3.18646925       0.00000000      36.04452813
W        4.77970388       1.59323463      37.63768526
W        3.18646925      -0.00000000      39.23080624
W        4.77970388       1.59323463      40.82397275
W        3.18646925       0.00000000      42.41719090
W        4.77970388       1.59323463      44.01040597
W        3.18646925      -0.00000000      45.60360419
W        4.77970388       1.59323463      47.19678621
W        3.18646925       0.00000000      48.78992771
W        4.77970388       1.59323463      50.38302982
W        3.18646925       0.00000000      51.97618343
W        4.77970388       1.59323463      53.56935705
W        3.18646925       3.18646925       0.79657260
W        4.77970388       4.77970388       2.38974621
W        3.18646925       3.18646925       3.98289982
W        4.77970388       4.77970388       5.57600194
W        3.18646925       3.18646925       7.16914343
W        4.77970388       4.77970388       8.76232545
W        3.18646925       3.18646925      10.35552367
W        4.77970388       4.77970388      11.94873874
W        3.18646925       3.18646925      13.54195690
W        4.77970388       4.77970388      15.13512341
W        3.18646925       3.18646925      16.72824439
W        4.77970388       4.77970388      18.32140151
W        3.18646925       3.18646925      19.91456100
W        4.77970388       4.77970388      21.50772269
W        3.18646925       3.18646925      23.10091978
W        4.77970388       4.77970388      24.69409217
W        3.18646925       3.18646925      29.67183748
W        4.77970388       4.77970388      31.26500986
W        3.18646925       3.18646925      32.85820695
W        4.77970388       4.77970388      34.45136864
W        3.18646925       3.18646925      36.04452813
W        4.77970388       4.77970388      37.63768526
W        3.18646925       3.18646925      39.23080624
W        4.77970388       4.77970388      40.82397275
W        3.18646925       3.18646925      42.41719090
W        4.77970388       4.77970388      44.01040597
W        3.18646925       3.18646925      45.60360419
W        4.77970388       4.77970388      47.19678621
W        3.18646925       3.18646925      48.78992771
W        4.77970388       4.77970388      50.38302982
W        3.18646925       3.18646925      51.97618343
W        4.77970388       4.77970388      53.56935705
W        3.18646925       6.37293851       0.79657260
W        4.77970388       7.96617313       2.38974621
W        3.18646925       6.37293851       3.98289982
W        4.77970388       7.96617313       5.57600194
W        3.18646925       6.37293851       7.16914343
W        4.77970388       7.96617313       8.76232545
W        3.18646925       6.37293851      10.35552367
W        4.77970388       7.96617313      11.94873874
W        3.18646925       6.37293851      13.54195690
W        4.77970388       7.96617313      15.13512341
W        3.18646925       6.37293851      16.72824439
W        4.77970388       7.96617313      18.32140151
W        3.18646925       6.37293851      19.91456100
W        4.77970388       7.96617313      21.50772269
W        3.18646925       6.37293851      23.10091978
W        4.77970388       7.96617313      24.69409217
W        3.18646925       6.37293851      29.67183748
W        4.77970388       7.96617313      31.26500986
W        3.18646925       6.37293851      32.85820695
W        4.77970388       7.96617313      34.45136864
W        3.18646925       6.37293851      36.04452813
W        4.77970388       7.96617313      37.63768526
W        3.18646925       6.37293851      39.23080624
W        4.77970388       7.96617313      40.82397275
W        3.18646925       6.37293851      42.41719090
W        4.77970388       7.96617313      44.01040597
W        3.18646925       6.37293851      45.60360419
W        4.77970388       7.96617313      47.19678621
W        3.18646925       6.37293851      48.78992771
W        4.77970388       7.96617313      50.38302982
W        3.18646925       6.37293851      51.97618343
W        4.77970388       7.96617313      53.56935705
W        6.37293851       0.00000000       0.79657260
W        7.96617313       1.59323463       2.38974621
W        6.37293851       0.00000000       3.98289982
W        7.96617313       1.59323463       5.57600194
W        6.37293851       0.00000000       7.16914343
W        7.96617313       1.59323463       8.76232545
W        6.37293851      -0.00000000      10.35552367
W        7.96617313       1.59323463      11.94873874
W        6.37293851       0.00000000      13.54195690
W        7.96617313       1.59323463      15.13512341
W        6.37293851      -0.00000000      16.72824439
W        7.96617313       1.59323463      18.32140151
W        6.37293851      -0.00000000      19.91456100
W        7.96617313       1.59323463      21.50772269
W        6.37293851       0.00000000      23.10091978
W        7.96617313       1.59323463      24.69409217
W        6.37293851      -0.00000000      29.67183748
W        7.96617313       1.59323463      31.26500986
W        6.37293851       0.00000000      32.85820695
W        7.96617313       1.59323463      34.45136864
W        6.37293851      -0.00000000      36.04452813
W        7.96617313       1.59323463      37.63768526
W        6.37293851       0.00000000      39.23080624
W        7.96617313       1.59323463      40.82397275
W        6.37293851      -0.00000000      42.41719090
W        7.96617313       1.59323463      44.01040597
W        6.37293851      -0.00000000      45.60360419
W        7.96617313       1.59323463      47.19678621
W        6.37293851      -0.00000000      48.78992771
W        7.96617313       1.59323463      50.38302982
W        6.37293851       0.00000000      51.97618343
W        7.96617313       1.59323463      53.56935705
W        6.37293851       3.18646925       0.79657260
W        7.96617313       4.77970388       2.38974621
W        6.37293851       3.18646925       3.98289982
W        7.96617313       4.77970388       5.57600194
W        6.37293851       3.18646925       7.16914343
W        7.96617313       4.77970388       8.76232545
W        6.37293851       3.18646925      10.35552367
W        7.96617313       4.77970388      11.94873874
W        6.37293851       3.18646925      13.54195690
W        7.96617313       4.77970388      15.13512341
W        6.37293851       3.18646925      16.72824439
W        7.96617313       4.77970388      18.32140151
W        6.37293851       3.18646925      19.91456100
W        7.96617313       4.77970388      21.50772269
W        6.37293851       3.18646925      23.10091978
W        7.96617313       4.77970388      24.69409217
W        6.37293851       3.18646925      29.67183748
W        7.96617313       4.77970388      31.26500986
W        6.37293851       3.18646925      32.85820695
W        7.96617313       4.77970388      34.45136864
W        6.37293851       3.18646925      36.04452813
W        7.96617313       4.77970388      37.63768526
W        6.37293851       3.18646925      39.23080624
W        7.96617313       4.77970388      40.82397275
W        6.37293851       3.18646925      42.41719090
W        7.96617313       4.77970388      44.01040597
W        6.37293851       3.18646925      45.60360419
W        7.96617313       4.77970388      47.19678621
W        6.37293851       3.18646925      48.78992771
W        7.96617313       4.77970388      50.38302982
W        6.37293851       3.18646925      51.97618343
W        7.96617313       4.77970388      53.56935705
W        6.37293851       6.37293851       0.79657260
W        7.96617313       7.96617313       2.38974621
W        6.37293851       6.37293851       3.98289982
W        7.96617313       7.96617313       5.57600194
W        6.37293851       6.37293851       7.16914343
W        7.96617313       7.96617313       8.76232545
W        6.37293851       6.37293851      10.35552367
W        7.96617313       7.96617313      11.94873874
W        6.37293851       6.37293851      13.54195690
W        7.96617313       7.96617313      15.13512341
W        6.37293851       6.37293851      16.72824439
W        7.96617313       7.96617313      18.32140151
W        6.37293851       6.37293851      19.91456100
W        7.96617313       7.96617313      21.50772269
W        6.37293851       6.37293851      23.10091978
W        7.96617313       7.96617313      24.69409217
W        6.37293851       6.37293851      29.67183748
W        7.96617313       7.96617313      31.26500986
W        6.37293851       6.37293851      32.85820695
W        7.96617313       7.96617313      34.45136864
W        6.37293851       6.37293851      36.04452813
W        7.96617313       7.96617313      37.63768526
W        6.37293851       6.37293851      39.23080624
W        7.96617313       7.96617313      40.82397275
W        6.37293851       6.37293851      42.41719090
W        7.96617313       7.96617313      44.01040597
W        6.37293851       6.37293851      45.60360419
W        7.96617313       7.96617313      47.19678621
W        6.37293851       6.37293851      48.78992771
W        7.96617313       7.96617313      50.38302982
W        6.37293851       6.37293851      51.97618343
W        7.96617313       7.96617313      53.56935705
288
Lattice="9.559407760912599 1.5551574685670926e-18 -1.2681778328733722e-17 1.5551574685670926e-18 9.559407760912599 -3.802032394954696e-17 -6.226046143134533e-17 -1.9250595450418562e-16 54.46849374731973" Properties=species:S:1:pos:R:3 vacuum_gap_Ang=3.4871794871794872 frame_index=34 pbc="T T T"
W       -0.00000000       0.00000000       0.79657260
W        1.59323463       1.59323463       2.38974621
W       -0.00000000       0.00000000       3.98289982
W        1.59323463       1.59323463       5.57600194
W        0.00000000       0.00000000       7.16914343
W        1.59323463       1.59323463       8.76232545
W       -0.00000000      -0.00000000      10.35552367
W        1.59323463       1.59323463      11.94873874
W        0.00000000      -0.00000000      13.54195690
W        1.59323463       1.59323463      15.13512341
W        0.00000000       0.00000000      16.72824439
W        1.59323463       1.59323463      18.32140151
W        0.00000000       0.00000000      19.91456100
W        1.59323463       1.59323463      21.50772269
W       -0.00000000      -0.00000000      23.10091978
W        1.59323463       1.59323463      24.69409217
W        0.00000000       0.00000000      29.77440158
W        1.59323463       1.59323463      31.36757396
W        0.00000000      -0.00000000      32.96077105
W        1.59323463       1.59323463      34.55393274
W        0.00000000       0.00000000      36.14709224
W        1.59323463       1.59323463      37.74024936
W        0.00000000      -0.00000000      39.33337034
W        1.59323463       1.59323463      40.92653685
W       -0.00000000      -0.00000000      42.51975500
W        1.59323463       1.59323463      44.11297007
W        0.00000000      -0.00000000      45.70616829
W        1.59323463       1.59323463      47.29935031
W        0.00000000      -0.00000000      48.89249181
W        1.59323463       1.59323463      50.48559393
W       -0.00000000      -0.00000000      52.07874753
W        1.59323463       1.59323463      53.67192115
W       -0.00000000       3.18646925       0.79657260
W        1.59323463       4.77970388       2.38974621
W       -0.00000000       3.18646925       3.98289982
W        1.59323463       4.77970388       5.57600194
W        0.00000000       3.18646925       7.16914343
W        1.59323463       4.77970388       8.76232545
W        0.00000000       3.18646925      10.35552367
W        1.59323463       4.77970388      11.94873874
W       -0.00000000       3.18646925      13.54195690
W        1.59323463       4.77970388      15.13512341
W       -0.00000000       3.18646925      16.72824439
W        1.59323463       4.77970388      18.32140151
W        0.00000000       3.18646925      19.91456100
W        1.59323463       4.77970388      21.50772269
W        0.00000000       3.18646925      23.10091978
W        1.59323463       4.77970388      24.69409217
W        0.00000000       3.18646925      29.77440158
W        1.59323463       4.77970388      31.36757396
W       -0.00000000       3.18646925      32.96077105
W        1.59323463       4.77970388      34.55393274
W        0.00000000       3.18646925      36.14709224
W        1.59323463       4.77970388      37.74024936
W        0.00000000       3.18646925      39.33337034
W        1.59323463       4.77970388      40.92653685
W        0.00000000       3.18646925      42.51975500
W        1.59323463       4.77970388      44.11297007
W        0.00000000       3.18646925      45.70616829
W        1.59323463       4.77970388      47.29935031
W        0.00000000       3.18646925      48.89249181
W        1.59323463       4.77970388      50.48559393
W        0.00000000       3.18646925      52.07874753
W        1.59323463       4.77970388      53.67192115
W        0.00000000       6.37293851       0.79657260
W        1.59323463       7.96617313       2.38974621
W       -0.00000000       6.37293851       3.98289982
W        1.59323463       7.96617313       5.57600194
W        0.00000000       6.37293851       7.16914343
W        1.59323463       7.96617313       8.76232545
W       -0.00000000       6.37293851      10.35552367
W        1.59323463       7.96617313      11.94873874
W        0.00000000       6.37293851      13.54195690
W        1.59323463       7.96617313      15.13512341
W       -0.00000000       6.37293851      16.72824439
W        1.59323463       7.96617313      18.32140151
W        0.00000000       6.37293851      19.91456100
W        1.59323463       7.96617313      21.50772269
W        0.00000000       6.37293851      23.10091978
W        1.59323463       7.96617313      24.69409217
W       -0.00000000       6.37293851      29.77440158
W        1.59323463       7.96617313      31.36757396
W        0.00000000       6.37293851      32.96077105
W        1.59323463       7.96617313      34.55393274
W       -0.00000000       6.37293851      36.14709224
W        1.59323463       7.96617313      37.74024936
W        0.00000000       6.37293851      39.33337034
W        1.59323463       7.96617313      40.92653685
W       -0.00000000       6.37293851      42.51975500
W        1.59323463       7.96617313      44.11297007
W        0.00000000       6.37293851      45.70616829
W        1.59323463       7.96617313      47.29935031
W       -0.00000000       6.37293851      48.89249181
W        1.59323463       7.96617313      50.48559393
W       -0.00000000       6.37293851      52.07874753
W        1.59323463       7.96617313      53.67192115
W        3.18646925      -0.00000000       0.79657260
W        4.77970388       1.59323463       2.38974621
W        3.18646925       0.00000000       3.98289982
W        4.77970388       1.59323463       5.57600194
W        3.18646925       0.00000000       7.16914343
W        4.77970388       1.59323463       8.76232545
W        3.18646925       0.00000000      10.35552367
W        4.77970388       1.59323463      11.94873874
W        3.18646925       0.00000000      13.54195690
W        4.77970388       1.59323463      15.13512341
W        3.18646925      -0.00000000      16.72824439
W        4.77970388       1.59323463      18.32140151
W        3.18646925      -0.00000000      19.91456100
W        4.77970388       1.59323463      21.50772269
W        3.18646925       0.00000000      23.10091978
W        4.77970388       1.59323463      24.69409217
W        3.18646925       0.00000000      29.77440158
W        4.77970388       1.59323463      31.36757396
W        3.18646925      -0.00000000      32.96077105
W        4.77970388       1.59323463      34.55393274
W        3.18646925       0.00000000      36.14709224
W        4.77970388       1.59323463      37.74024936
W        3.18646925      -0.00000000      39.33337034
W        4.77970388       1.59323463      40.92653685
W        3.18646925       0.00000000      42.51975500
W        4.77970388       1.59323463      44.11297007
W        3.18646925      -0.00000000      45.70616829
W        4.77970388       1.59323463      47.29935031
W        3.18646925       0.00000000      48.89249181
W        4.77970388       1.59323463      50.48559393
W        3.18646925       0.00000000      52.07874753
W        4.77970388       1.59323463      53.67192115
W        3.18646925       3.18646925       0.79657260
W        4.77970388       4.77970388       2.38974621
W        3.18646925       3.18646925       3.98289982
W        4.77970388       4.77970388       5.57600194
W        3.18646925       3.18646925       7.16914343
W        4.77970388       4.77970388       8.76232545
W        3.18646925       3.18646925      10.35552367
W        4.77970388       4.77970388      11.94873874
W        3.18646925       3.18646925      13.54195690
W        4.77970388       4.77970388      15.13512341
W        3.18646925       3.18646925      16.72824439
W        4.77970388       4.77970388      18.32140151
W        3.18646925       3.18646925      19.91456100
W        4.77970388       4.77970388      21.50772269
W        3.18646925       3.18646925      23.10091978
W        4.77970388       4.77970388      24.69409217
W        3.18646925       3.18646925      29.77440158
W        4.77970388       4.77970388      31.36757396
W        3.18646925       3.18646925      32.96077105
W        4.77970388       4.77970388      34.55393274
W        3.18646925       3.18646925      36.14709224
W        4.77970388       4.77970388      37.74024936
W        3.18646925       3.18646925      39.33337034
W        4.77970388       4.77970388      40.92653685
W        3.18646925       3.18646925      42.51975500
W        4.77970388       4.77970388      44.11297007
W        3.18646925       3.18646925      45.70616829
W        4.77970388       4.77970388      47.29935031
W        3.18646925       3.18646925      48.89249181
W        4.77970388       4.77970388      50.48559393
W        3.18646925       3.18646925      52.07874753
W        4.77970388       4.77970388      53.67192115
W        3.18646925       6.37293851       0.79657260
W        4.77970388       7.96617313       2.38974621
W        3.18646925       6.37293851       3.98289982
W        4.77970388       7.96617313       5.57600194
W        3.18646925       6.37293851       7.16914343
W        4.77970388       7.96617313       8.76232545
W        3.18646925       6.37293851      10.35552367
W        4.77970388       7.96617313      11.94873874
W        3.18646925       6.37293851      13.54195690
W        4.77970388       7.96617313      15.13512341
W        3.18646925       6.37293851      16.72824439
W        4.77970388       7.96617313      18.32140151
W        3.18646925       6.37293851      19.91456100
W        4.77970388       7.96617313      21.50772269
W        3.18646925       6.37293851      23.10091978
W        4.77970388       7.96617313      24.69409217
W        3.18646925       6.37293851      29.77440158
W        4.77970388       7.96617313      31.36757396
W        3.18646925       6.37293851      32.96077105
W        4.77970388       7.96617313      34.55393274
W        3.18646925       6.37293851      36.14709224
W        4.77970388       7.96617313      37.74024936
W        3.18646925       6.37293851      39.33337034
W        4.77970388       7.96617313      40.92653685
W        3.18646925       6.37293851      42.51975500
W        4.77970388       7.96617313      44.11297007
W        3.18646925       6.37293851      45.70616829
W        4.77970388       7.96617313      47.29935031
W        3.18646925       6.37293851      48.89249181
W        4.77970388       7.96617313      50.48559393
W        3.18646925       6.37293851      52.07874753
W        4.77970388       7.96617313      53.67192115
W        6.37293851       0.00000000       0.79657260
W        7.96617313       1.59323463       2.38974621
W        6.37293851       0.00000000       3.98289982
W        7.96617313       1.59323463       5.57600194
W        6.37293851       0.00000000       7.16914343
W        7.96617313       1.59323463       8.76232545
W        6.37293851      -0.00000000      10.35552367
W        7.96617313       1.59323463      11.94873874
W        6.37293851       0.00000000      13.54195690
W        7.96617313       1.59323463      15.13512341
W        6.37293851      -0.00000000      16.72824439
W        7.96617313       1.59323463      18.32140151
W        6.37293851      -0.00000000      19.91456100
W        7.96617313       1.59323463      21.50772269
W        6.37293851       0.00000000      23.10091978
W        7.96617313       1.59323463      24.69409217
W        6.37293851      -0.00000000      29.77440158
W        7.96617313       1.59323463      31.36757396
W        6.37293851       0.00000000      32.96077105
W        7.96617313       1.59323463      34.55393274
W        6.37293851      -0.00000000      36.14709224
W        7.96617313       1.59323463      37.74024936
W        6.37293851       0.00000000      39.33337034
W        7.96617313       1.59323463      40.92653685
W        6.37293851      -0.00000000      42.51975500
W        7.96617313       1.59323463      44.11297007
W        6.37293851      -0.00000000      45.70616829
W        7.96617313       1.59323463      47.29935031
W        6.37293851      -0.00000000      48.89249181
W        7.96617313       1.59323463      50.48559393
W        6.37293851       0.00000000      52.07874753
W        7.96617313       1.59323463      53.67192115
W        6.37293851       3.18646925       0.79657260
W        7.96617313       4.77970388       2.38974621
W        6.37293851       3.18646925       3.98289982
W        7.96617313       4.77970388       5.57600194
W        6.37293851       3.18646925       7.16914343
W        7.96617313       4.77970388       8.76232545
W        6.37293851       3.18646925      10.35552367
W        7.96617313       4.77970388      11.94873874
W        6.37293851       3.18646925      13.54195690
W        7.96617313       4.77970388      15.13512341
W        6.37293851       3.18646925      16.72824439
W        7.96617313       4.77970388      18.32140151
W        6.37293851       3.18646925      19.91456100
W        7.96617313       4.77970388      21.50772269
W        6.37293851       3.18646925      23.10091978
W        7.96617313       4.77970388      24.69409217
W        6.37293851       3.18646925      29.77440158
W        7.96617313       4.77970388      31.36757396
W        6.37293851       3.18646925      32.96077105
W        7.96617313       4.77970388      34.55393274
W        6.37293851       3.18646925      36.14709224
W        7.96617313       4.77970388      37.74024936
W        6.37293851       3.18646925      39.33337034
W        7.96617313       4.77970388      40.92653685
W        6.37293851       3.18646925      42.51975500
W        7.96617313       4.77970388      44.11297007
W        6.37293851       3.18646925      45.70616829
W        7.96617313       4.77970388      47.29935031
W        6.37293851       3.18646925      48.89249181
W        7.96617313       4.77970388      50.48559393
W        6.37293851       3.18646925      52.07874753
W        7.96617313       4.77970388      53.67192115
W        6.37293851       6.37293851       0.79657260
W        7.96617313       7.96617313       2.38974621
W        6.37293851       6.37293851       3.98289982
W        7.96617313       7.96617313       5.57600194
W        6.37293851       6.37293851       7.16914343
W        7.96617313       7.96617313       8.76232545
W        6.37293851       6.37293851      10.35552367
W        7.96617313       7.96617313      11.94873874
W        6.37293851       6.37293851      13.54195690
W        7.96617313       7.96617313      15.13512341
W        6.37293851       6.37293851      16.72824439
W        7.96617313       7.96617313      18.32140151
W        6.37293851       6.37293851      19.91456100
W        7.96617313       7.96617313      21.50772269
W        6.37293851       6.37293851      23.10091978
W        7.96617313       7.96617313      24.69409217
W        6.37293851       6.37293851      29.77440158
W        7.96617313       7.96617313      31.36757396
W        6.37293851       6.37293851      32.96077105
W        7.96617313       7.96617313      34.55393274
W        6.37293851       6.37293851      36.14709224
W        7.96617313       7.96617313      37.74024936
W        6.37293851       6.37293851      39.33337034
W        7.96617313       7.96617313      40.92653685
W        6.37293851       6.37293851      42.51975500
W        7.96617313       7.96617313      44.11297007
W        6.37293851       6.37293851      45.70616829
W        7.96617313       7.96617313      47.29935031
W        6.37293851       6.37293851      48.89249181
W        7.96617313       7.96617313      50.48559393
W        6.37293851       6.37293851      52.07874753
W        7.96617313       7.96617313      53.67192115
288
Lattice="9.559407760912599 1.5551574685670926e-18 -1.2681778328733722e-17 1.5551574685670926e-18 9.559407760912599 -3.802032394954696e-17 -6.226046143134533e-17 -1.9250595450418562e-16 54.57105784988383" Properties=species:S:1:pos:R:3 vacuum_gap_Ang=3.5897435897435894 frame_index=35 pbc="T T T"
W       -0.00000000       0.00000000       0.79657260
W        1.59323463       1.59323463       2.38974621
W       -0.00000000       0.00000000       3.98289982
W        1.59323463       1.59323463       5.57600194
W        0.00000000       0.00000000       7.16914343
W        1.59323463       1.59323463       8.76232545
W       -0.00000000      -0.00000000      10.35552367
W        1.59323463       1.59323463      11.94873874
W        0.00000000      -0.00000000      13.54195690
W        1.59323463       1.59323463      15.13512341
W        0.00000000       0.00000000      16.72824439
W        1.59323463       1.59323463      18.32140151
W        0.00000000       0.00000000      19.91456100
W        1.59323463       1.59323463      21.50772269
W       -0.00000000      -0.00000000      23.10091978
W        1.59323463       1.59323463      24.69409217
W        0.00000000       0.00000000      29.87696568
W        1.59323463       1.59323463      31.47013807
W        0.00000000      -0.00000000      33.06333516
W        1.59323463       1.59323463      34.65649685
W        0.00000000       0.00000000      36.24965634
W        1.59323463       1.59323463      37.84281346
W        0.00000000      -0.00000000      39.43593444
W        1.59323463       1.59323463      41.02910095
W       -0.00000000      -0.00000000      42.62231911
W        1.59323463       1.59323463      44.21553417
W        0.00000000      -0.00000000      45.80873240
W        1.59323463       1.59323463      47.40191442
W        0.00000000      -0.00000000      48.99505591
W        1.59323463       1.59323463      50.58815803
W       -0.00000000      -0.00000000      52.18131164
W        1.59323463       1.59323463      53.77448525
W       -0.00000000       3.18646925       0.79657260
W        1.59323463       4.77970388       2.38974621
W       -0.00000000       3.18646925       3.98289982
W        1.59323463       4.77970388       5.57600194
W        0.00000000       3.18646925       7.16914343
W        1.59323463       4.77970388       8.76232545
W        0.00000000       3.18646925      10.35552367
W        1.59323463       4.77970388      11.94873874
W       -0.00000000       3.18646925      13.54195690
W        1.59323463       4.77970388      15.13512341
W       -0.00000000       3.18646925      16.72824439
W        1.59323463       4.77970388      18.32140151
W        0.00000000       3.18646925      19.91456100
W        1.59323463       4.77970388      21.50772269
W        0.00000000       3.18646925      23.10091978
W        1.59323463       4.77970388      24.69409217
W        0.00000000       3.18646925      29.87696568
W        1.59323463       4.77970388      31.47013807
W       -0.00000000       3.18646925      33.06333516
W        1.59323463       4.77970388      34.65649685
W        0.00000000       3.18646925      36.24965634
W        1.59323463       4.77970388      37.84281346
W        0.00000000       3.18646925      39.43593444
W        1.59323463       4.77970388      41.02910095
W        0.00000000       3.18646925      42.62231911
W        1.59323463       4.77970388      44.21553417
W        0.00000000       3.18646925      45.80873240
W        1.59323463       4.77970388      47.40191442
W        0.00000000       3.18646925      48.99505591
W        1.59323463       4.77970388      50.58815803
W        0.00000000       3.18646925      52.18131164
W        1.59323463       4.77970388      53.77448525
W        0.00000000       6.37293851       0.79657260
W        1.59323463       7.96617313       2.38974621
W       -0.00000000       6.37293851       3.98289982
W        1.59323463       7.96617313       5.57600194
W        0.00000000       6.37293851       7.16914343
W        1.59323463       7.96617313       8.76232545
W       -0.00000000       6.37293851      10.35552367
W        1.59323463       7.96617313      11.94873874
W        0.00000000       6.37293851      13.54195690
W        1.59323463       7.96617313      15.13512341
W       -0.00000000       6.37293851      16.72824439
W        1.59323463       7.96617313      18.32140151
W        0.00000000       6.37293851      19.91456100
W        1.59323463       7.96617313      21.50772269
W        0.00000000       6.37293851      23.10091978
W        1.59323463       7.96617313      24.69409217
W       -0.00000000       6.37293851      29.87696568
W        1.59323463       7.96617313      31.47013807
W        0.00000000       6.37293851      33.06333516
W        1.59323463       7.96617313      34.65649685
W       -0.00000000       6.37293851      36.24965634
W        1.59323463       7.96617313      37.84281346
W        0.00000000       6.37293851      39.43593444
W        1.59323463       7.96617313      41.02910095
W       -0.00000000       6.37293851      42.62231911
W        1.59323463       7.96617313      44.21553417
W        0.00000000       6.37293851      45.80873240
W        1.59323463       7.96617313      47.40191442
W       -0.00000000       6.37293851      48.99505591
W        1.59323463       7.96617313      50.58815803
W       -0.00000000       6.37293851      52.18131164
W        1.59323463       7.96617313      53.77448525
W        3.18646925      -0.00000000       0.79657260
W        4.77970388       1.59323463       2.38974621
W        3.18646925       0.00000000       3.98289982
W        4.77970388       1.59323463       5.57600194
W        3.18646925       0.00000000       7.16914343
W        4.77970388       1.59323463       8.76232545
W        3.18646925       0.00000000      10.35552367
W        4.77970388       1.59323463      11.94873874
W        3.18646925       0.00000000      13.54195690
W        4.77970388       1.59323463      15.13512341
W        3.18646925      -0.00000000      16.72824439
W        4.77970388       1.59323463      18.32140151
W        3.18646925      -0.00000000      19.91456100
W        4.77970388       1.59323463      21.50772269
W        3.18646925       0.00000000      23.10091978
W        4.77970388       1.59323463      24.69409217
W        3.18646925       0.00000000      29.87696568
W        4.77970388       1.59323463      31.47013807
W        3.18646925      -0.00000000      33.06333516
W        4.77970388       1.59323463      34.65649685
W        3.18646925       0.00000000      36.24965634
W        4.77970388       1.59323463      37.84281346
W        3.18646925      -0.00000000      39.43593444
W        4.77970388       1.59323463      41.02910095
W        3.18646925       0.00000000      42.62231911
W        4.77970388       1.59323463      44.21553417
W        3.18646925      -0.00000000      45.80873240
W        4.77970388       1.59323463      47.40191442
W        3.18646925       0.00000000      48.99505591
W        4.77970388       1.59323463      50.58815803
W        3.18646925       0.00000000      52.18131164
W        4.77970388       1.59323463      53.77448525
W        3.18646925       3.18646925       0.79657260
W        4.77970388       4.77970388       2.38974621
W        3.18646925       3.18646925       3.98289982
W        4.77970388       4.77970388       5.57600194
W        3.18646925       3.18646925       7.16914343
W        4.77970388       4.77970388       8.76232545
W        3.18646925       3.18646925      10.35552367
W        4.77970388       4.77970388      11.94873874
W        3.18646925       3.18646925      13.54195690
W        4.77970388       4.77970388      15.13512341
W        3.18646925       3.18646925      16.72824439
W        4.77970388       4.77970388      18.32140151
W        3.18646925       3.18646925      19.91456100
W        4.77970388       4.77970388      21.50772269
W        3.18646925       3.18646925      23.10091978
W        4.77970388       4.77970388      24.69409217
W        3.18646925       3.18646925      29.87696568
W        4.77970388       4.77970388      31.47013807
W        3.18646925       3.18646925      33.06333516
W        4.77970388       4.77970388      34.65649685
W        3.18646925       3.18646925      36.24965634
W        4.77970388       4.77970388      37.84281346
W        3.18646925       3.18646925      39.43593444
W        4.77970388       4.77970388      41.02910095
W        3.18646925       3.18646925      42.62231911
W        4.77970388       4.77970388      44.21553417
W        3.18646925       3.18646925      45.80873240
W        4.77970388       4.77970388      47.40191442
W        3.18646925       3.18646925      48.99505591
W        4.77970388       4.77970388      50.58815803
W        3.18646925       3.18646925      52.18131164
W        4.77970388       4.77970388      53.77448525
W        3.18646925       6.37293851       0.79657260
W        4.77970388       7.96617313       2.38974621
W        3.18646925       6.37293851       3.98289982
W        4.77970388       7.96617313       5.57600194
W        3.18646925       6.37293851       7.16914343
W        4.77970388       7.96617313       8.76232545
W        3.18646925       6.37293851      10.35552367
W        4.77970388       7.96617313      11.94873874
W        3.18646925       6.37293851      13.54195690
W        4.77970388       7.96617313      15.13512341
W        3.18646925       6.37293851      16.72824439
W        4.77970388       7.96617313      18.32140151
W        3.18646925       6.37293851      19.91456100
W        4.77970388       7.96617313      21.50772269
W        3.18646925       6.37293851      23.10091978
W        4.77970388       7.96617313      24.69409217
W        3.18646925       6.37293851      29.87696568
W        4.77970388       7.96617313      31.47013807
W        3.18646925       6.37293851      33.06333516
W        4.77970388       7.96617313      34.65649685
W        3.18646925       6.37293851      36.24965634
W        4.77970388       7.96617313      37.84281346
W        3.18646925       6.37293851      39.43593444
W        4.77970388       7.96617313      41.02910095
W        3.18646925       6.37293851      42.62231911
W        4.77970388       7.96617313      44.21553417
W        3.18646925       6.37293851      45.80873240
W        4.77970388       7.96617313      47.40191442
W        3.18646925       6.37293851      48.99505591
W        4.77970388       7.96617313      50.58815803
W        3.18646925       6.37293851      52.18131164
W        4.77970388       7.96617313      53.77448525
W        6.37293851       0.00000000       0.79657260
W        7.96617313       1.59323463       2.38974621
W        6.37293851       0.00000000       3.98289982
W        7.96617313       1.59323463       5.57600194
W        6.37293851       0.00000000       7.16914343
W        7.96617313       1.59323463       8.76232545
W        6.37293851      -0.00000000      10.35552367
W        7.96617313       1.59323463      11.94873874
W        6.37293851       0.00000000      13.54195690
W        7.96617313       1.59323463      15.13512341
W        6.37293851      -0.00000000      16.72824439
W        7.96617313       1.59323463      18.32140151
W        6.37293851      -0.00000000      19.91456100
W        7.96617313       1.59323463      21.50772269
W        6.37293851       0.00000000      23.10091978
W        7.96617313       1.59323463      24.69409217
W        6.37293851      -0.00000000      29.87696568
W        7.96617313       1.59323463      31.47013807
W        6.37293851       0.00000000      33.06333516
W        7.96617313       1.59323463      34.65649685
W        6.37293851      -0.00000000      36.24965634
W        7.96617313       1.59323463      37.84281346
W        6.37293851       0.00000000      39.43593444
W        7.96617313       1.59323463      41.02910095
W        6.37293851      -0.00000000      42.62231911
W        7.96617313       1.59323463      44.21553417
W        6.37293851      -0.00000000      45.80873240
W        7.96617313       1.59323463      47.40191442
W        6.37293851      -0.00000000      48.99505591
W        7.96617313       1.59323463      50.58815803
W        6.37293851       0.00000000      52.18131164
W        7.96617313       1.59323463      53.77448525
W        6.37293851       3.18646925       0.79657260
W        7.96617313       4.77970388       2.38974621
W        6.37293851       3.18646925       3.98289982
W        7.96617313       4.77970388       5.57600194
W        6.37293851       3.18646925       7.16914343
W        7.96617313       4.77970388       8.76232545
W        6.37293851       3.18646925      10.35552367
W        7.96617313       4.77970388      11.94873874
W        6.37293851       3.18646925      13.54195690
W        7.96617313       4.77970388      15.13512341
W        6.37293851       3.18646925      16.72824439
W        7.96617313       4.77970388      18.32140151
W        6.37293851       3.18646925      19.91456100
W        7.96617313       4.77970388      21.50772269
W        6.37293851       3.18646925      23.10091978
W        7.96617313       4.77970388      24.69409217
W        6.37293851       3.18646925      29.87696568
W        7.96617313       4.77970388      31.47013807
W        6.37293851       3.18646925      33.06333516
W        7.96617313       4.77970388      34.65649685
W        6.37293851       3.18646925      36.24965634
W        7.96617313       4.77970388      37.84281346
W        6.37293851       3.18646925      39.43593444
W        7.96617313       4.77970388      41.02910095
W        6.37293851       3.18646925      42.62231911
W        7.96617313       4.77970388      44.21553417
W        6.37293851       3.18646925      45.80873240
W        7.96617313       4.77970388      47.40191442
W        6.37293851       3.18646925      48.99505591
W        7.96617313       4.77970388      50.58815803
W        6.37293851       3.18646925      52.18131164
W        7.96617313       4.77970388      53.77448525
W        6.37293851       6.37293851       0.79657260
W        7.96617313       7.96617313       2.38974621
W        6.37293851       6.37293851       3.98289982
W        7.96617313       7.96617313       5.57600194
W        6.37293851       6.37293851       7.16914343
W        7.96617313       7.96617313       8.76232545
W        6.37293851       6.37293851      10.35552367
W        7.96617313       7.96617313      11.94873874
W        6.37293851       6.37293851      13.54195690
W        7.96617313       7.96617313      15.13512341
W        6.37293851       6.37293851      16.72824439
W        7.96617313       7.96617313      18.32140151
W        6.37293851       6.37293851      19.91456100
W        7.96617313       7.96617313      21.50772269
W        6.37293851       6.37293851      23.10091978
W        7.96617313       7.96617313      24.69409217
W        6.37293851       6.37293851      29.87696568
W        7.96617313       7.96617313      31.47013807
W        6.37293851       6.37293851      33.06333516
W        7.96617313       7.96617313      34.65649685
W        6.37293851       6.37293851      36.24965634
W        7.96617313       7.96617313      37.84281346
W        6.37293851       6.37293851      39.43593444
W        7.96617313       7.96617313      41.02910095
W        6.37293851       6.37293851      42.62231911
W        7.96617313       7.96617313      44.21553417
W        6.37293851       6.37293851      45.80873240
W        7.96617313       7.96617313      47.40191442
W        6.37293851       6.37293851      48.99505591
W        7.96617313       7.96617313      50.58815803
W        6.37293851       6.37293851      52.18131164
W        7.96617313       7.96617313      53.77448525
288
Lattice="9.559407760912599 1.5551574685670926e-18 -1.2681778328733722e-17 1.5551574685670926e-18 9.559407760912599 -3.802032394954696e-17 -6.226046143134533e-17 -1.9250595450418562e-16 54.67362195244793" Properties=species:S:1:pos:R:3 vacuum_gap_Ang=3.692307692307692 frame_index=36 pbc="T T T"
W       -0.00000000       0.00000000       0.79657260
W        1.59323463       1.59323463       2.38974621
W       -0.00000000       0.00000000       3.98289982
W        1.59323463       1.59323463       5.57600194
W        0.00000000       0.00000000       7.16914343
W        1.59323463       1.59323463       8.76232545
W       -0.00000000      -0.00000000      10.35552367
W        1.59323463       1.59323463      11.94873874
W        0.00000000      -0.00000000      13.54195690
W        1.59323463       1.59323463      15.13512341
W        0.00000000       0.00000000      16.72824439
W        1.59323463       1.59323463      18.32140151
W        0.00000000       0.00000000      19.91456100
W        1.59323463       1.59323463      21.50772269
W       -0.00000000      -0.00000000      23.10091978
W        1.59323463       1.59323463      24.69409217
W        0.00000000       0.00000000      29.97952979
W        1.59323463       1.59323463      31.57270217
W        0.00000000      -0.00000000      33.16589926
W        1.59323463       1.59323463      34.75906095
W        0.00000000       0.00000000      36.35222044
W        1.59323463       1.59323463      37.94537756
W        0.00000000      -0.00000000      39.53849855
W        1.59323463       1.59323463      41.13166506
W       -0.00000000      -0.00000000      42.72488321
W        1.59323463       1.59323463      44.31809828
W        0.00000000      -0.00000000      45.91129650
W        1.59323463       1.59323463      47.50447852
W        0.00000000      -0.00000000      49.09762001
W        1.59323463       1.59323463      50.69072213
W       -0.00000000      -0.00000000      52.28387574
W        1.59323463       1.59323463      53.87704935
W       -0.00000000       3.18646925       0.79657260
W        1.59323463       4.77970388       2.38974621
W       -0.00000000       3.18646925       3.98289982
W        1.59323463       4.77970388       5.57600194
W        0.00000000       3.18646925       7.16914343
W        1.59323463       4.77970388       8.76232545
W        0.00000000       3.18646925      10.35552367
W        1.59323463       4.77970388      11.94873874
W       -0.00000000       3.18646925      13.54195690
W        1.59323463       4.77970388      15.13512341
W       -0.00000000       3.18646925      16.72824439
W        1.59323463       4.77970388      18.32140151
W        0.00000000       3.18646925      19.91456100
W        1.59323463       4.77970388      21.50772269
W        0.00000000       3.18646925      23.10091978
W        1.59323463       4.77970388      24.69409217
W        0.00000000       3.18646925      29.97952979
W        1.59323463       4.77970388      31.57270217
W       -0.00000000       3.18646925      33.16589926
W        1.59323463       4.77970388      34.75906095
W        0.00000000       3.18646925      36.35222044
W        1.59323463       4.77970388      37.94537756
W        0.00000000       3.18646925      39.53849855
W        1.59323463       4.77970388      41.13166506
W        0.00000000       3.18646925      42.72488321
W        1.59323463       4.77970388      44.31809828
W        0.00000000       3.18646925      45.91129650
W        1.59323463       4.77970388      47.50447852
W        0.00000000       3.18646925      49.09762001
W        1.59323463       4.77970388      50.69072213
W        0.00000000       3.18646925      52.28387574
W        1.59323463       4.77970388      53.87704935
W        0.00000000       6.37293851       0.79657260
W        1.59323463       7.96617313       2.38974621
W       -0.00000000       6.37293851       3.98289982
W        1.59323463       7.96617313       5.57600194
W        0.00000000       6.37293851       7.16914343
W        1.59323463       7.96617313       8.76232545
W       -0.00000000       6.37293851      10.35552367
W        1.59323463       7.96617313      11.94873874
W        0.00000000       6.37293851      13.54195690
W        1.59323463       7.96617313      15.13512341
W       -0.00000000       6.37293851      16.72824439
W        1.59323463       7.96617313      18.32140151
W        0.00000000       6.37293851      19.91456100
W        1.59323463       7.96617313      21.50772269
W        0.00000000       6.37293851      23.10091978
W        1.59323463       7.96617313      24.69409217
W       -0.00000000       6.37293851      29.97952979
W        1.59323463       7.96617313      31.57270217
W        0.00000000       6.37293851      33.16589926
W        1.59323463       7.96617313      34.75906095
W       -0.00000000       6.37293851      36.35222044
W        1.59323463       7.96617313      37.94537756
W        0.00000000       6.37293851      39.53849855
W        1.59323463       7.96617313      41.13166506
W       -0.00000000       6.37293851      42.72488321
W        1.59323463       7.96617313      44.31809828
W        0.00000000       6.37293851      45.91129650
W        1.59323463       7.96617313      47.50447852
W       -0.00000000       6.37293851      49.09762001
W        1.59323463       7.96617313      50.69072213
W       -0.00000000       6.37293851      52.28387574
W        1.59323463       7.96617313      53.87704935
W        3.18646925      -0.00000000       0.79657260
W        4.77970388       1.59323463       2.38974621
W        3.18646925       0.00000000       3.98289982
W        4.77970388       1.59323463       5.57600194
W        3.18646925       0.00000000       7.16914343
W        4.77970388       1.59323463       8.76232545
W        3.18646925       0.00000000      10.35552367
W        4.77970388       1.59323463      11.94873874
W        3.18646925       0.00000000      13.54195690
W        4.77970388       1.59323463      15.13512341
W        3.18646925      -0.00000000      16.72824439
W        4.77970388       1.59323463      18.32140151
W        3.18646925      -0.00000000      19.91456100
W        4.77970388       1.59323463      21.50772269
W        3.18646925       0.00000000      23.10091978
W        4.77970388       1.59323463      24.69409217
W        3.18646925       0.00000000      29.97952979
W        4.77970388       1.59323463      31.57270217
W        3.18646925      -0.00000000      33.16589926
W        4.77970388       1.59323463      34.75906095
W        3.18646925       0.00000000      36.35222044
W        4.77970388       1.59323463      37.94537756
W        3.18646925      -0.00000000      39.53849855
W        4.77970388       1.59323463      41.13166506
W        3.18646925       0.00000000      42.72488321
W        4.77970388       1.59323463      44.31809828
W        3.18646925      -0.00000000      45.91129650
W        4.77970388       1.59323463      47.50447852
W        3.18646925       0.00000000      49.09762001
W        4.77970388       1.59323463      50.69072213
W        3.18646925       0.00000000      52.28387574
W        4.77970388       1.59323463      53.87704935
W        3.18646925       3.18646925       0.79657260
W        4.77970388       4.77970388       2.38974621
W        3.18646925       3.18646925       3.98289982
W        4.77970388       4.77970388       5.57600194
W        3.18646925       3.18646925       7.16914343
W        4.77970388       4.77970388       8.76232545
W        3.18646925       3.18646925      10.35552367
W        4.77970388       4.77970388      11.94873874
W        3.18646925       3.18646925      13.54195690
W        4.77970388       4.77970388      15.13512341
W        3.18646925       3.18646925      16.72824439
W        4.77970388       4.77970388      18.32140151
W        3.18646925       3.18646925      19.91456100
W        4.77970388       4.77970388      21.50772269
W        3.18646925       3.18646925      23.10091978
W        4.77970388       4.77970388      24.69409217
W        3.18646925       3.18646925      29.97952979
W        4.77970388       4.77970388      31.57270217
W        3.18646925       3.18646925      33.16589926
W        4.77970388       4.77970388      34.75906095
W        3.18646925       3.18646925      36.35222044
W        4.77970388       4.77970388      37.94537756
W        3.18646925       3.18646925      39.53849855
W        4.77970388       4.77970388      41.13166506
W        3.18646925       3.18646925      42.72488321
W        4.77970388       4.77970388      44.31809828
W        3.18646925       3.18646925      45.91129650
W        4.77970388       4.77970388      47.50447852
W        3.18646925       3.18646925      49.09762001
W        4.77970388       4.77970388      50.69072213
W        3.18646925       3.18646925      52.28387574
W        4.77970388       4.77970388      53.87704935
W        3.18646925       6.37293851       0.79657260
W        4.77970388       7.96617313       2.38974621
W        3.18646925       6.37293851       3.98289982
W        4.77970388       7.96617313       5.57600194
W        3.18646925       6.37293851       7.16914343
W        4.77970388       7.96617313       8.76232545
W        3.18646925       6.37293851      10.35552367
W        4.77970388       7.96617313      11.94873874
W        3.18646925       6.37293851      13.54195690
W        4.77970388       7.96617313      15.13512341
W        3.18646925       6.37293851      16.72824439
W        4.77970388       7.96617313      18.32140151
W        3.18646925       6.37293851      19.91456100
W        4.77970388       7.96617313      21.50772269
W        3.18646925       6.37293851      23.10091978
W        4.77970388       7.96617313      24.69409217
W        3.18646925       6.37293851      29.97952979
W        4.77970388       7.96617313      31.57270217
W        3.18646925       6.37293851      33.16589926
W        4.77970388       7.96617313      34.75906095
W        3.18646925       6.37293851      36.35222044
W        4.77970388       7.96617313      37.94537756
W        3.18646925       6.37293851      39.53849855
W        4.77970388       7.96617313      41.13166506
W        3.18646925       6.37293851      42.72488321
W        4.77970388       7.96617313      44.31809828
W        3.18646925       6.37293851      45.91129650
W        4.77970388       7.96617313      47.50447852
W        3.18646925       6.37293851      49.09762001
W        4.77970388       7.96617313      50.69072213
W        3.18646925       6.37293851      52.28387574
W        4.77970388       7.96617313      53.87704935
W        6.37293851       0.00000000       0.79657260
W        7.96617313       1.59323463       2.38974621
W        6.37293851       0.00000000       3.98289982
W        7.96617313       1.59323463       5.57600194
W        6.37293851       0.00000000       7.16914343
W        7.96617313       1.59323463       8.76232545
W        6.37293851      -0.00000000      10.35552367
W        7.96617313       1.59323463      11.94873874
W        6.37293851       0.00000000      13.54195690
W        7.96617313       1.59323463      15.13512341
W        6.37293851      -0.00000000      16.72824439
W        7.96617313       1.59323463      18.32140151
W        6.37293851      -0.00000000      19.91456100
W        7.96617313       1.59323463      21.50772269
W        6.37293851       0.00000000      23.10091978
W        7.96617313       1.59323463      24.69409217
W        6.37293851      -0.00000000      29.97952979
W        7.96617313       1.59323463      31.57270217
W        6.37293851       0.00000000      33.16589926
W        7.96617313       1.59323463      34.75906095
W        6.37293851      -0.00000000      36.35222044
W        7.96617313       1.59323463      37.94537756
W        6.37293851       0.00000000      39.53849855
W        7.96617313       1.59323463      41.13166506
W        6.37293851      -0.00000000      42.72488321
W        7.96617313       1.59323463      44.31809828
W        6.37293851      -0.00000000      45.91129650
W        7.96617313       1.59323463      47.50447852
W        6.37293851      -0.00000000      49.09762001
W        7.96617313       1.59323463      50.69072213
W        6.37293851       0.00000000      52.28387574
W        7.96617313       1.59323463      53.87704935
W        6.37293851       3.18646925       0.79657260
W        7.96617313       4.77970388       2.38974621
W        6.37293851       3.18646925       3.98289982
W        7.96617313       4.77970388       5.57600194
W        6.37293851       3.18646925       7.16914343
W        7.96617313       4.77970388       8.76232545
W        6.37293851       3.18646925      10.35552367
W        7.96617313       4.77970388      11.94873874
W        6.37293851       3.18646925      13.54195690
W        7.96617313       4.77970388      15.13512341
W        6.37293851       3.18646925      16.72824439
W        7.96617313       4.77970388      18.32140151
W        6.37293851       3.18646925      19.91456100
W        7.96617313       4.77970388      21.50772269
W        6.37293851       3.18646925      23.10091978
W        7.96617313       4.77970388      24.69409217
W        6.37293851       3.18646925      29.97952979
W        7.96617313       4.77970388      31.57270217
W        6.37293851       3.18646925      33.16589926
W        7.96617313       4.77970388      34.75906095
W        6.37293851       3.18646925      36.35222044
W        7.96617313       4.77970388      37.94537756
W        6.37293851       3.18646925      39.53849855
W        7.96617313       4.77970388      41.13166506
W        6.37293851       3.18646925      42.72488321
W        7.96617313       4.77970388      44.31809828
W        6.37293851       3.18646925      45.91129650
W        7.96617313       4.77970388      47.50447852
W        6.37293851       3.18646925      49.09762001
W        7.96617313       4.77970388      50.69072213
W        6.37293851       3.18646925      52.28387574
W        7.96617313       4.77970388      53.87704935
W        6.37293851       6.37293851       0.79657260
W        7.96617313       7.96617313       2.38974621
W        6.37293851       6.37293851       3.98289982
W        7.96617313       7.96617313       5.57600194
W        6.37293851       6.37293851       7.16914343
W        7.96617313       7.96617313       8.76232545
W        6.37293851       6.37293851      10.35552367
W        7.96617313       7.96617313      11.94873874
W        6.37293851       6.37293851      13.54195690
W        7.96617313       7.96617313      15.13512341
W        6.37293851       6.37293851      16.72824439
W        7.96617313       7.96617313      18.32140151
W        6.37293851       6.37293851      19.91456100
W        7.96617313       7.96617313      21.50772269
W        6.37293851       6.37293851      23.10091978
W        7.96617313       7.96617313      24.69409217
W        6.37293851       6.37293851      29.97952979
W        7.96617313       7.96617313      31.57270217
W        6.37293851       6.37293851      33.16589926
W        7.96617313       7.96617313      34.75906095
W        6.37293851       6.37293851      36.35222044
W        7.96617313       7.96617313      37.94537756
W        6.37293851       6.37293851      39.53849855
W        7.96617313       7.96617313      41.13166506
W        6.37293851       6.37293851      42.72488321
W        7.96617313       7.96617313      44.31809828
W        6.37293851       6.37293851      45.91129650
W        7.96617313       7.96617313      47.50447852
W        6.37293851       6.37293851      49.09762001
W        7.96617313       7.96617313      50.69072213
W        6.37293851       6.37293851      52.28387574
W        7.96617313       7.96617313      53.87704935
288
Lattice="9.559407760912599 1.5551574685670926e-18 -1.2681778328733722e-17 1.5551574685670926e-18 9.559407760912599 -3.802032394954696e-17 -6.226046143134533e-17 -1.9250595450418562e-16 54.77618605501203" Properties=species:S:1:pos:R:3 vacuum_gap_Ang=3.7948717948717947 frame_index=37 pbc="T T T"
W       -0.00000000       0.00000000       0.79657260
W        1.59323463       1.59323463       2.38974621
W       -0.00000000       0.00000000       3.98289982
W        1.59323463       1.59323463       5.57600194
W        0.00000000       0.00000000       7.16914343
W        1.59323463       1.59323463       8.76232545
W       -0.00000000      -0.00000000      10.35552367
W        1.59323463       1.59323463      11.94873874
W        0.00000000      -0.00000000      13.54195690
W        1.59323463       1.59323463      15.13512341
W        0.00000000       0.00000000      16.72824439
W        1.59323463       1.59323463      18.32140151
W        0.00000000       0.00000000      19.91456100
W        1.59323463       1.59323463      21.50772269
W       -0.00000000      -0.00000000      23.10091978
W        1.59323463       1.59323463      24.69409217
W        0.00000000       0.00000000      30.08209389
W        1.59323463       1.59323463      31.67526627
W        0.00000000      -0.00000000      33.26846336
W        1.59323463       1.59323463      34.86162505
W        0.00000000       0.00000000      36.45478454
W        1.59323463       1.59323463      38.04794167
W        0.00000000      -0.00000000      39.64106265
W        1.59323463       1.59323463      41.23422916
W       -0.00000000      -0.00000000      42.82744731
W        1.59323463       1.59323463      44.42066238
W        0.00000000      -0.00000000      46.01386060
W        1.59323463       1.59323463      47.60704262
W        0.00000000      -0.00000000      49.20018412
W        1.59323463       1.59323463      50.79328623
W       -0.00000000      -0.00000000      52.38643984
W        1.59323463       1.59323463      53.97961346
W       -0.00000000       3.18646925       0.79657260
W        1.59323463       4.77970388       2.38974621
W       -0.00000000       3.18646925       3.98289982
W        1.59323463       4.77970388       5.57600194
W        0.00000000       3.18646925       7.16914343
W        1.59323463       4.77970388       8.76232545
W        0.00000000       3.18646925      10.35552367
W        1.59323463       4.77970388      11.94873874
W       -0.00000000       3.18646925      13.54195690
W        1.59323463       4.77970388      15.13512341
W       -0.00000000       3.18646925      16.72824439
W        1.59323463       4.77970388      18.32140151
W        0.00000000       3.18646925      19.91456100
W        1.59323463       4.77970388      21.50772269
W        0.00000000       3.18646925      23.10091978
W        1.59323463       4.77970388      24.69409217
W        0.00000000       3.18646925      30.08209389
W        1.59323463       4.77970388      31.67526627
W       -0.00000000       3.18646925      33.26846336
W        1.59323463       4.77970388      34.86162505
W        0.00000000       3.18646925      36.45478454
W        1.59323463       4.77970388      38.04794167
W        0.00000000       3.18646925      39.64106265
W        1.59323463       4.77970388      41.23422916
W        0.00000000       3.18646925      42.82744731
W        1.59323463       4.77970388      44.42066238
W        0.00000000       3.18646925      46.01386060
W        1.59323463       4.77970388      47.60704262
W        0.00000000       3.18646925      49.20018412
W        1.59323463       4.77970388      50.79328623
W        0.00000000       3.18646925      52.38643984
W        1.59323463       4.77970388      53.97961346
W        0.00000000       6.37293851       0.79657260
W        1.59323463       7.96617313       2.38974621
W       -0.00000000       6.37293851       3.98289982
W        1.59323463       7.96617313       5.57600194
W        0.00000000       6.37293851       7.16914343
W        1.59323463       7.96617313       8.76232545
W       -0.00000000       6.37293851      10.35552367
W        1.59323463       7.96617313      11.94873874
W        0.00000000       6.37293851      13.54195690
W        1.59323463       7.96617313      15.13512341
W       -0.00000000       6.37293851      16.72824439
W        1.59323463       7.96617313      18.32140151
W        0.00000000       6.37293851      19.91456100
W        1.59323463       7.96617313      21.50772269
W        0.00000000       6.37293851      23.10091978
W        1.59323463       7.96617313      24.69409217
W       -0.00000000       6.37293851      30.08209389
W        1.59323463       7.96617313      31.67526627
W        0.00000000       6.37293851      33.26846336
W        1.59323463       7.96617313      34.86162505
W       -0.00000000       6.37293851      36.45478454
W        1.59323463       7.96617313      38.04794167
W        0.00000000       6.37293851      39.64106265
W        1.59323463       7.96617313      41.23422916
W       -0.00000000       6.37293851      42.82744731
W        1.59323463       7.96617313      44.42066238
W        0.00000000       6.37293851      46.01386060
W        1.59323463       7.96617313      47.60704262
W       -0.00000000       6.37293851      49.20018412
W        1.59323463       7.96617313      50.79328623
W       -0.00000000       6.37293851      52.38643984
W        1.59323463       7.96617313      53.97961346
W        3.18646925      -0.00000000       0.79657260
W        4.77970388       1.59323463       2.38974621
W        3.18646925       0.00000000       3.98289982
W        4.77970388       1.59323463       5.57600194
W        3.18646925       0.00000000       7.16914343
W        4.77970388       1.59323463       8.76232545
W        3.18646925       0.00000000      10.35552367
W        4.77970388       1.59323463      11.94873874
W        3.18646925       0.00000000      13.54195690
W        4.77970388       1.59323463      15.13512341
W        3.18646925      -0.00000000      16.72824439
W        4.77970388       1.59323463      18.32140151
W        3.18646925      -0.00000000      19.91456100
W        4.77970388       1.59323463      21.50772269
W        3.18646925       0.00000000      23.10091978
W        4.77970388       1.59323463      24.69409217
W        3.18646925       0.00000000      30.08209389
W        4.77970388       1.59323463      31.67526627
W        3.18646925      -0.00000000      33.26846336
W        4.77970388       1.59323463      34.86162505
W        3.18646925       0.00000000      36.45478454
W        4.77970388       1.59323463      38.04794167
W        3.18646925      -0.00000000      39.64106265
W        4.77970388       1.59323463      41.23422916
W        3.18646925       0.00000000      42.82744731
W        4.77970388       1.59323463      44.42066238
W        3.18646925      -0.00000000      46.01386060
W        4.77970388       1.59323463      47.60704262
W        3.18646925       0.00000000      49.20018412
W        4.77970388       1.59323463      50.79328623
W        3.18646925       0.00000000      52.38643984
W        4.77970388       1.59323463      53.97961346
W        3.18646925       3.18646925       0.79657260
W        4.77970388       4.77970388       2.38974621
W        3.18646925       3.18646925       3.98289982
W        4.77970388       4.77970388       5.57600194
W        3.18646925       3.18646925       7.16914343
W        4.77970388       4.77970388       8.76232545
W        3.18646925       3.18646925      10.35552367
W        4.77970388       4.77970388      11.94873874
W        3.18646925       3.18646925      13.54195690
W        4.77970388       4.77970388      15.13512341
W        3.18646925       3.18646925      16.72824439
W        4.77970388       4.77970388      18.32140151
W        3.18646925       3.18646925      19.91456100
W        4.77970388       4.77970388      21.50772269
W        3.18646925       3.18646925      23.10091978
W        4.77970388       4.77970388      24.69409217
W        3.18646925       3.18646925      30.08209389
W        4.77970388       4.77970388      31.67526627
W        3.18646925       3.18646925      33.26846336
W        4.77970388       4.77970388      34.86162505
W        3.18646925       3.18646925      36.45478454
W        4.77970388       4.77970388      38.04794167
W        3.18646925       3.18646925      39.64106265
W        4.77970388       4.77970388      41.23422916
W        3.18646925       3.18646925      42.82744731
W        4.77970388       4.77970388      44.42066238
W        3.18646925       3.18646925      46.01386060
W        4.77970388       4.77970388      47.60704262
W        3.18646925       3.18646925      49.20018412
W        4.77970388       4.77970388      50.79328623
W        3.18646925       3.18646925      52.38643984
W        4.77970388       4.77970388      53.97961346
W        3.18646925       6.37293851       0.79657260
W        4.77970388       7.96617313       2.38974621
W        3.18646925       6.37293851       3.98289982
W        4.77970388       7.96617313       5.57600194
W        3.18646925       6.37293851       7.16914343
W        4.77970388       7.96617313       8.76232545
W        3.18646925       6.37293851      10.35552367
W        4.77970388       7.96617313      11.94873874
W        3.18646925       6.37293851      13.54195690
W        4.77970388       7.96617313      15.13512341
W        3.18646925       6.37293851      16.72824439
W        4.77970388       7.96617313      18.32140151
W        3.18646925       6.37293851      19.91456100
W        4.77970388       7.96617313      21.50772269
W        3.18646925       6.37293851      23.10091978
W        4.77970388       7.96617313      24.69409217
W        3.18646925       6.37293851      30.08209389
W        4.77970388       7.96617313      31.67526627
W        3.18646925       6.37293851      33.26846336
W        4.77970388       7.96617313      34.86162505
W        3.18646925       6.37293851      36.45478454
W        4.77970388       7.96617313      38.04794167
W        3.18646925       6.37293851      39.64106265
W        4.77970388       7.96617313      41.23422916
W        3.18646925       6.37293851      42.82744731
W        4.77970388       7.96617313      44.42066238
W        3.18646925       6.37293851      46.01386060
W        4.77970388       7.96617313      47.60704262
W        3.18646925       6.37293851      49.20018412
W        4.77970388       7.96617313      50.79328623
W        3.18646925       6.37293851      52.38643984
W        4.77970388       7.96617313      53.97961346
W        6.37293851       0.00000000       0.79657260
W        7.96617313       1.59323463       2.38974621
W        6.37293851       0.00000000       3.98289982
W        7.96617313       1.59323463       5.57600194
W        6.37293851       0.00000000       7.16914343
W        7.96617313       1.59323463       8.76232545
W        6.37293851      -0.00000000      10.35552367
W        7.96617313       1.59323463      11.94873874
W        6.37293851       0.00000000      13.54195690
W        7.96617313       1.59323463      15.13512341
W        6.37293851      -0.00000000      16.72824439
W        7.96617313       1.59323463      18.32140151
W        6.37293851      -0.00000000      19.91456100
W        7.96617313       1.59323463      21.50772269
W        6.37293851       0.00000000      23.10091978
W        7.96617313       1.59323463      24.69409217
W        6.37293851      -0.00000000      30.08209389
W        7.96617313       1.59323463      31.67526627
W        6.37293851       0.00000000      33.26846336
W        7.96617313       1.59323463      34.86162505
W        6.37293851      -0.00000000      36.45478454
W        7.96617313       1.59323463      38.04794167
W        6.37293851       0.00000000      39.64106265
W        7.96617313       1.59323463      41.23422916
W        6.37293851      -0.00000000      42.82744731
W        7.96617313       1.59323463      44.42066238
W        6.37293851      -0.00000000      46.01386060
W        7.96617313       1.59323463      47.60704262
W        6.37293851      -0.00000000      49.20018412
W        7.96617313       1.59323463      50.79328623
W        6.37293851       0.00000000      52.38643984
W        7.96617313       1.59323463      53.97961346
W        6.37293851       3.18646925       0.79657260
W        7.96617313       4.77970388       2.38974621
W        6.37293851       3.18646925       3.98289982
W        7.96617313       4.77970388       5.57600194
W        6.37293851       3.18646925       7.16914343
W        7.96617313       4.77970388       8.76232545
W        6.37293851       3.18646925      10.35552367
W        7.96617313       4.77970388      11.94873874
W        6.37293851       3.18646925      13.54195690
W        7.96617313       4.77970388      15.13512341
W        6.37293851       3.18646925      16.72824439
W        7.96617313       4.77970388      18.32140151
W        6.37293851       3.18646925      19.91456100
W        7.96617313       4.77970388      21.50772269
W        6.37293851       3.18646925      23.10091978
W        7.96617313       4.77970388      24.69409217
W        6.37293851       3.18646925      30.08209389
W        7.96617313       4.77970388      31.67526627
W        6.37293851       3.18646925      33.26846336
W        7.96617313       4.77970388      34.86162505
W        6.37293851       3.18646925      36.45478454
W        7.96617313       4.77970388      38.04794167
W        6.37293851       3.18646925      39.64106265
W        7.96617313       4.77970388      41.23422916
W        6.37293851       3.18646925      42.82744731
W        7.96617313       4.77970388      44.42066238
W        6.37293851       3.18646925      46.01386060
W        7.96617313       4.77970388      47.60704262
W        6.37293851       3.18646925      49.20018412
W        7.96617313       4.77970388      50.79328623
W        6.37293851       3.18646925      52.38643984
W        7.96617313       4.77970388      53.97961346
W        6.37293851       6.37293851       0.79657260
W        7.96617313       7.96617313       2.38974621
W        6.37293851       6.37293851       3.98289982
W        7.96617313       7.96617313       5.57600194
W        6.37293851       6.37293851       7.16914343
W        7.96617313       7.96617313       8.76232545
W        6.37293851       6.37293851      10.35552367
W        7.96617313       7.96617313      11.94873874
W        6.37293851       6.37293851      13.54195690
W        7.96617313       7.96617313      15.13512341
W        6.37293851       6.37293851      16.72824439
W        7.96617313       7.96617313      18.32140151
W        6.37293851       6.37293851      19.91456100
W        7.96617313       7.96617313      21.50772269
W        6.37293851       6.37293851      23.10091978
W        7.96617313       7.96617313      24.69409217
W        6.37293851       6.37293851      30.08209389
W        7.96617313       7.96617313      31.67526627
W        6.37293851       6.37293851      33.26846336
W        7.96617313       7.96617313      34.86162505
W        6.37293851       6.37293851      36.45478454
W        7.96617313       7.96617313      38.04794167
W        6.37293851       6.37293851      39.64106265
W        7.96617313       7.96617313      41.23422916
W        6.37293851       6.37293851      42.82744731
W        7.96617313       7.96617313      44.42066238
W        6.37293851       6.37293851      46.01386060
W        7.96617313       7.96617313      47.60704262
W        6.37293851       6.37293851      49.20018412
W        7.96617313       7.96617313      50.79328623
W        6.37293851       6.37293851      52.38643984
W        7.96617313       7.96617313      53.97961346
288
Lattice="9.559407760912599 1.5551574685670926e-18 -1.2681778328733722e-17 1.5551574685670926e-18 9.559407760912599 -3.802032394954696e-17 -6.226046143134533e-17 -1.9250595450418562e-16 54.878750157576135" Properties=species:S:1:pos:R:3 vacuum_gap_Ang=3.8974358974358974 frame_index=38 pbc="T T T"
W       -0.00000000       0.00000000       0.79657260
W        1.59323463       1.59323463       2.38974621
W       -0.00000000       0.00000000       3.98289982
W        1.59323463       1.59323463       5.57600194
W        0.00000000       0.00000000       7.16914343
W        1.59323463       1.59323463       8.76232545
W       -0.00000000      -0.00000000      10.35552367
W        1.59323463       1.59323463      11.94873874
W        0.00000000      -0.00000000      13.54195690
W        1.59323463       1.59323463      15.13512341
W        0.00000000       0.00000000      16.72824439
W        1.59323463       1.59323463      18.32140151
W        0.00000000       0.00000000      19.91456100
W        1.59323463       1.59323463      21.50772269
W       -0.00000000      -0.00000000      23.10091978
W        1.59323463       1.59323463      24.69409217
W        0.00000000       0.00000000      30.18465799
W        1.59323463       1.59323463      31.77783037
W        0.00000000      -0.00000000      33.37102746
W        1.59323463       1.59323463      34.96418915
W        0.00000000       0.00000000      36.55734865
W        1.59323463       1.59323463      38.15050577
W        0.00000000      -0.00000000      39.74362675
W        1.59323463       1.59323463      41.33679326
W       -0.00000000      -0.00000000      42.93001141
W        1.59323463       1.59323463      44.52322648
W        0.00000000      -0.00000000      46.11642470
W        1.59323463       1.59323463      47.70960672
W        0.00000000      -0.00000000      49.30274822
W        1.59323463       1.59323463      50.89585034
W       -0.00000000      -0.00000000      52.48900395
W        1.59323463       1.59323463      54.08217756
W       -0.00000000       3.18646925       0.79657260
W        1.59323463       4.77970388       2.38974621
W       -0.00000000       3.18646925       3.98289982
W        1.59323463       4.77970388       5.57600194
W        0.00000000       3.18646925       7.16914343
W        1.59323463       4.77970388       8.76232545
W        0.00000000       3.18646925      10.35552367
W        1.59323463       4.77970388      11.94873874
W       -0.00000000       3.18646925      13.54195690
W        1.59323463       4.77970388      15.13512341
W       -0.00000000       3.18646925      16.72824439
W        1.59323463       4.77970388      18.32140151
W        0.00000000       3.18646925      19.91456100
W        1.59323463       4.77970388      21.50772269
W        0.00000000       3.18646925      23.10091978
W        1.59323463       4.77970388      24.69409217
W        0.00000000       3.18646925      30.18465799
W        1.59323463       4.77970388      31.77783037
W       -0.00000000       3.18646925      33.37102746
W        1.59323463       4.77970388      34.96418915
W        0.00000000       3.18646925      36.55734865
W        1.59323463       4.77970388      38.15050577
W        0.00000000       3.18646925      39.74362675
W        1.59323463       4.77970388      41.33679326
W        0.00000000       3.18646925      42.93001141
W        1.59323463       4.77970388      44.52322648
W        0.00000000       3.18646925      46.11642470
W        1.59323463       4.77970388      47.70960672
W        0.00000000       3.18646925      49.30274822
W        1.59323463       4.77970388      50.89585034
W        0.00000000       3.18646925      52.48900395
W        1.59323463       4.77970388      54.08217756
W        0.00000000       6.37293851       0.79657260
W        1.59323463       7.96617313       2.38974621
W       -0.00000000       6.37293851       3.98289982
W        1.59323463       7.96617313       5.57600194
W        0.00000000       6.37293851       7.16914343
W        1.59323463       7.96617313       8.76232545
W       -0.00000000       6.37293851      10.35552367
W        1.59323463       7.96617313      11.94873874
W        0.00000000       6.37293851      13.54195690
W        1.59323463       7.96617313      15.13512341
W       -0.00000000       6.37293851      16.72824439
W        1.59323463       7.96617313      18.32140151
W        0.00000000       6.37293851      19.91456100
W        1.59323463       7.96617313      21.50772269
W        0.00000000       6.37293851      23.10091978
W        1.59323463       7.96617313      24.69409217
W       -0.00000000       6.37293851      30.18465799
W        1.59323463       7.96617313      31.77783037
W        0.00000000       6.37293851      33.37102746
W        1.59323463       7.96617313      34.96418915
W       -0.00000000       6.37293851      36.55734865
W        1.59323463       7.96617313      38.15050577
W        0.00000000       6.37293851      39.74362675
W        1.59323463       7.96617313      41.33679326
W       -0.00000000       6.37293851      42.93001141
W        1.59323463       7.96617313      44.52322648
W        0.00000000       6.37293851      46.11642470
W        1.59323463       7.96617313      47.70960672
W       -0.00000000       6.37293851      49.30274822
W        1.59323463       7.96617313      50.89585034
W       -0.00000000       6.37293851      52.48900395
W        1.59323463       7.96617313      54.08217756
W        3.18646925      -0.00000000       0.79657260
W        4.77970388       1.59323463       2.38974621
W        3.18646925       0.00000000       3.98289982
W        4.77970388       1.59323463       5.57600194
W        3.18646925       0.00000000       7.16914343
W        4.77970388       1.59323463       8.76232545
W        3.18646925       0.00000000      10.35552367
W        4.77970388       1.59323463      11.94873874
W        3.18646925       0.00000000      13.54195690
W        4.77970388       1.59323463      15.13512341
W        3.18646925      -0.00000000      16.72824439
W        4.77970388       1.59323463      18.32140151
W        3.18646925      -0.00000000      19.91456100
W        4.77970388       1.59323463      21.50772269
W        3.18646925       0.00000000      23.10091978
W        4.77970388       1.59323463      24.69409217
W        3.18646925       0.00000000      30.18465799
W        4.77970388       1.59323463      31.77783037
W        3.18646925      -0.00000000      33.37102746
W        4.77970388       1.59323463      34.96418915
W        3.18646925       0.00000000      36.55734865
W        4.77970388       1.59323463      38.15050577
W        3.18646925      -0.00000000      39.74362675
W        4.77970388       1.59323463      41.33679326
W        3.18646925       0.00000000      42.93001141
W        4.77970388       1.59323463      44.52322648
W        3.18646925      -0.00000000      46.11642470
W        4.77970388       1.59323463      47.70960672
W        3.18646925       0.00000000      49.30274822
W        4.77970388       1.59323463      50.89585034
W        3.18646925       0.00000000      52.48900395
W        4.77970388       1.59323463      54.08217756
W        3.18646925       3.18646925       0.79657260
W        4.77970388       4.77970388       2.38974621
W        3.18646925       3.18646925       3.98289982
W        4.77970388       4.77970388       5.57600194
W        3.18646925       3.18646925       7.16914343
W        4.77970388       4.77970388       8.76232545
W        3.18646925       3.18646925      10.35552367
W        4.77970388       4.77970388      11.94873874
W        3.18646925       3.18646925      13.54195690
W        4.77970388       4.77970388      15.13512341
W        3.18646925       3.18646925      16.72824439
W        4.77970388       4.77970388      18.32140151
W        3.18646925       3.18646925      19.91456100
W        4.77970388       4.77970388      21.50772269
W        3.18646925       3.18646925      23.10091978
W        4.77970388       4.77970388      24.69409217
W        3.18646925       3.18646925      30.18465799
W        4.77970388       4.77970388      31.77783037
W        3.18646925       3.18646925      33.37102746
W        4.77970388       4.77970388      34.96418915
W        3.18646925       3.18646925      36.55734865
W        4.77970388       4.77970388      38.15050577
W        3.18646925       3.18646925      39.74362675
W        4.77970388       4.77970388      41.33679326
W        3.18646925       3.18646925      42.93001141
W        4.77970388       4.77970388      44.52322648
W        3.18646925       3.18646925      46.11642470
W        4.77970388       4.77970388      47.70960672
W        3.18646925       3.18646925      49.30274822
W        4.77970388       4.77970388      50.89585034
W        3.18646925       3.18646925      52.48900395
W        4.77970388       4.77970388      54.08217756
W        3.18646925       6.37293851       0.79657260
W        4.77970388       7.96617313       2.38974621
W        3.18646925       6.37293851       3.98289982
W        4.77970388       7.96617313       5.57600194
W        3.18646925       6.37293851       7.16914343
W        4.77970388       7.96617313       8.76232545
W        3.18646925       6.37293851      10.35552367
W        4.77970388       7.96617313      11.94873874
W        3.18646925       6.37293851      13.54195690
W        4.77970388       7.96617313      15.13512341
W        3.18646925       6.37293851      16.72824439
W        4.77970388       7.96617313      18.32140151
W        3.18646925       6.37293851      19.91456100
W        4.77970388       7.96617313      21.50772269
W        3.18646925       6.37293851      23.10091978
W        4.77970388       7.96617313      24.69409217
W        3.18646925       6.37293851      30.18465799
W        4.77970388       7.96617313      31.77783037
W        3.18646925       6.37293851      33.37102746
W        4.77970388       7.96617313      34.96418915
W        3.18646925       6.37293851      36.55734865
W        4.77970388       7.96617313      38.15050577
W        3.18646925       6.37293851      39.74362675
W        4.77970388       7.96617313      41.33679326
W        3.18646925       6.37293851      42.93001141
W        4.77970388       7.96617313      44.52322648
W        3.18646925       6.37293851      46.11642470
W        4.77970388       7.96617313      47.70960672
W        3.18646925       6.37293851      49.30274822
W        4.77970388       7.96617313      50.89585034
W        3.18646925       6.37293851      52.48900395
W        4.77970388       7.96617313      54.08217756
W        6.37293851       0.00000000       0.79657260
W        7.96617313       1.59323463       2.38974621
W        6.37293851       0.00000000       3.98289982
W        7.96617313       1.59323463       5.57600194
W        6.37293851       0.00000000       7.16914343
W        7.96617313       1.59323463       8.76232545
W        6.37293851      -0.00000000      10.35552367
W        7.96617313       1.59323463      11.94873874
W        6.37293851       0.00000000      13.54195690
W        7.96617313       1.59323463      15.13512341
W        6.37293851      -0.00000000      16.72824439
W        7.96617313       1.59323463      18.32140151
W        6.37293851      -0.00000000      19.91456100
W        7.96617313       1.59323463      21.50772269
W        6.37293851       0.00000000      23.10091978
W        7.96617313       1.59323463      24.69409217
W        6.37293851      -0.00000000      30.18465799
W        7.96617313       1.59323463      31.77783037
W        6.37293851       0.00000000      33.37102746
W        7.96617313       1.59323463      34.96418915
W        6.37293851      -0.00000000      36.55734865
W        7.96617313       1.59323463      38.15050577
W        6.37293851       0.00000000      39.74362675
W        7.96617313       1.59323463      41.33679326
W        6.37293851      -0.00000000      42.93001141
W        7.96617313       1.59323463      44.52322648
W        6.37293851      -0.00000000      46.11642470
W        7.96617313       1.59323463      47.70960672
W        6.37293851      -0.00000000      49.30274822
W        7.96617313       1.59323463      50.89585034
W        6.37293851       0.00000000      52.48900395
W        7.96617313       1.59323463      54.08217756
W        6.37293851       3.18646925       0.79657260
W        7.96617313       4.77970388       2.38974621
W        6.37293851       3.18646925       3.98289982
W        7.96617313       4.77970388       5.57600194
W        6.37293851       3.18646925       7.16914343
W        7.96617313       4.77970388       8.76232545
W        6.37293851       3.18646925      10.35552367
W        7.96617313       4.77970388      11.94873874
W        6.37293851       3.18646925      13.54195690
W        7.96617313       4.77970388      15.13512341
W        6.37293851       3.18646925      16.72824439
W        7.96617313       4.77970388      18.32140151
W        6.37293851       3.18646925      19.91456100
W        7.96617313       4.77970388      21.50772269
W        6.37293851       3.18646925      23.10091978
W        7.96617313       4.77970388      24.69409217
W        6.37293851       3.18646925      30.18465799
W        7.96617313       4.77970388      31.77783037
W        6.37293851       3.18646925      33.37102746
W        7.96617313       4.77970388      34.96418915
W        6.37293851       3.18646925      36.55734865
W        7.96617313       4.77970388      38.15050577
W        6.37293851       3.18646925      39.74362675
W        7.96617313       4.77970388      41.33679326
W        6.37293851       3.18646925      42.93001141
W        7.96617313       4.77970388      44.52322648
W        6.37293851       3.18646925      46.11642470
W        7.96617313       4.77970388      47.70960672
W        6.37293851       3.18646925      49.30274822
W        7.96617313       4.77970388      50.89585034
W        6.37293851       3.18646925      52.48900395
W        7.96617313       4.77970388      54.08217756
W        6.37293851       6.37293851       0.79657260
W        7.96617313       7.96617313       2.38974621
W        6.37293851       6.37293851       3.98289982
W        7.96617313       7.96617313       5.57600194
W        6.37293851       6.37293851       7.16914343
W        7.96617313       7.96617313       8.76232545
W        6.37293851       6.37293851      10.35552367
W        7.96617313       7.96617313      11.94873874
W        6.37293851       6.37293851      13.54195690
W        7.96617313       7.96617313      15.13512341
W        6.37293851       6.37293851      16.72824439
W        7.96617313       7.96617313      18.32140151
W        6.37293851       6.37293851      19.91456100
W        7.96617313       7.96617313      21.50772269
W        6.37293851       6.37293851      23.10091978
W        7.96617313       7.96617313      24.69409217
W        6.37293851       6.37293851      30.18465799
W        7.96617313       7.96617313      31.77783037
W        6.37293851       6.37293851      33.37102746
W        7.96617313       7.96617313      34.96418915
W        6.37293851       6.37293851      36.55734865
W        7.96617313       7.96617313      38.15050577
W        6.37293851       6.37293851      39.74362675
W        7.96617313       7.96617313      41.33679326
W        6.37293851       6.37293851      42.93001141
W        7.96617313       7.96617313      44.52322648
W        6.37293851       6.37293851      46.11642470
W        7.96617313       7.96617313      47.70960672
W        6.37293851       6.37293851      49.30274822
W        7.96617313       7.96617313      50.89585034
W        6.37293851       6.37293851      52.48900395
W        7.96617313       7.96617313      54.08217756
288
Lattice="9.559407760912599 1.5551574685670926e-18 -1.2681778328733722e-17 1.5551574685670926e-18 9.559407760912599 -3.802032394954696e-17 -6.226046143134533e-17 -1.9250595450418562e-16 54.98131426014024" Properties=species:S:1:pos:R:3 vacuum_gap_Ang=4.0 frame_index=39 pbc="T T T"
W       -0.00000000       0.00000000       0.79657260
W        1.59323463       1.59323463       2.38974621
W       -0.00000000       0.00000000       3.98289982
W        1.59323463       1.59323463       5.57600194
W        0.00000000       0.00000000       7.16914343
W        1.59323463       1.59323463       8.76232545
W       -0.00000000      -0.00000000      10.35552367
W        1.59323463       1.59323463      11.94873874
W        0.00000000      -0.00000000      13.54195690
W        1.59323463       1.59323463      15.13512341
W        0.00000000       0.00000000      16.72824439
W        1.59323463       1.59323463      18.32140151
W        0.00000000       0.00000000      19.91456100
W        1.59323463       1.59323463      21.50772269
W       -0.00000000      -0.00000000      23.10091978
W        1.59323463       1.59323463      24.69409217
W        0.00000000       0.00000000      30.28722209
W        1.59323463       1.59323463      31.88039448
W        0.00000000      -0.00000000      33.47359157
W        1.59323463       1.59323463      35.06675326
W        0.00000000       0.00000000      36.65991275
W        1.59323463       1.59323463      38.25306987
W        0.00000000      -0.00000000      39.84619085
W        1.59323463       1.59323463      41.43935736
W       -0.00000000      -0.00000000      43.03257552
W        1.59323463       1.59323463      44.62579059
W        0.00000000      -0.00000000      46.21898881
W        1.59323463       1.59323463      47.81217083
W        0.00000000      -0.00000000      49.40531232
W        1.59323463       1.59323463      50.99841444
W       -0.00000000      -0.00000000      52.59156805
W        1.59323463       1.59323463      54.18474166
W       -0.00000000       3.18646925       0.79657260
W        1.59323463       4.77970388       2.38974621
W       -0.00000000       3.18646925       3.98289982
W        1.59323463       4.77970388       5.57600194
W        0.00000000       3.18646925       7.16914343
W        1.59323463       4.77970388       8.76232545
W        0.00000000       3.18646925      10.35552367
W        1.59323463       4.77970388      11.94873874
W       -0.00000000       3.18646925      13.54195690
W        1.59323463       4.77970388      15.13512341
W       -0.00000000       3.18646925      16.72824439
W        1.59323463       4.77970388      18.32140151
W        0.00000000       3.18646925      19.91456100
W        1.59323463       4.77970388      21.50772269
W        0.00000000       3.18646925      23.10091978
W        1.59323463       4.77970388      24.69409217
W        0.00000000       3.18646925      30.28722209
W        1.59323463       4.77970388      31.88039448
W       -0.00000000       3.18646925      33.47359157
W        1.59323463       4.77970388      35.06675326
W        0.00000000       3.18646925      36.65991275
W        1.59323463       4.77970388      38.25306987
W        0.00000000       3.18646925      39.84619085
W        1.59323463       4.77970388      41.43935736
W        0.00000000       3.18646925      43.03257552
W        1.59323463       4.77970388      44.62579059
W        0.00000000       3.18646925      46.21898881
W        1.59323463       4.77970388      47.81217083
W        0.00000000       3.18646925      49.40531232
W        1.59323463       4.77970388      50.99841444
W        0.00000000       3.18646925      52.59156805
W        1.59323463       4.77970388      54.18474166
W        0.00000000       6.37293851       0.79657260
W        1.59323463       7.96617313       2.38974621
W       -0.00000000       6.37293851       3.98289982
W        1.59323463       7.96617313       5.57600194
W        0.00000000       6.37293851       7.16914343
W        1.59323463       7.96617313       8.76232545
W       -0.00000000       6.37293851      10.35552367
W        1.59323463       7.96617313      11.94873874
W        0.00000000       6.37293851      13.54195690
W        1.59323463       7.96617313      15.13512341
W       -0.00000000       6.37293851      16.72824439
W        1.59323463       7.96617313      18.32140151
W        0.00000000       6.37293851      19.91456100
W        1.59323463       7.96617313      21.50772269
W        0.00000000       6.37293851      23.10091978
W        1.59323463       7.96617313      24.69409217
W       -0.00000000       6.37293851      30.28722209
W        1.59323463       7.96617313      31.88039448
W        0.00000000       6.37293851      33.47359157
W        1.59323463       7.96617313      35.06675326
W       -0.00000000       6.37293851      36.65991275
W        1.59323463       7.96617313      38.25306987
W        0.00000000       6.37293851      39.84619085
W        1.59323463       7.96617313      41.43935736
W       -0.00000000       6.37293851      43.03257552
W        1.59323463       7.96617313      44.62579059
W        0.00000000       6.37293851      46.21898881
W        1.59323463       7.96617313      47.81217083
W       -0.00000000       6.37293851      49.40531232
W        1.59323463       7.96617313      50.99841444
W       -0.00000000       6.37293851      52.59156805
W        1.59323463       7.96617313      54.18474166
W        3.18646925      -0.00000000       0.79657260
W        4.77970388       1.59323463       2.38974621
W        3.18646925       0.00000000       3.98289982
W        4.77970388       1.59323463       5.57600194
W        3.18646925       0.00000000       7.16914343
W        4.77970388       1.59323463       8.76232545
W        3.18646925       0.00000000      10.35552367
W        4.77970388       1.59323463      11.94873874
W        3.18646925       0.00000000      13.54195690
W        4.77970388       1.59323463      15.13512341
W        3.18646925      -0.00000000      16.72824439
W        4.77970388       1.59323463      18.32140151
W        3.18646925      -0.00000000      19.91456100
W        4.77970388       1.59323463      21.50772269
W        3.18646925       0.00000000      23.10091978
W        4.77970388       1.59323463      24.69409217
W        3.18646925       0.00000000      30.28722209
W        4.77970388       1.59323463      31.88039448
W        3.18646925      -0.00000000      33.47359157
W        4.77970388       1.59323463      35.06675326
W        3.18646925       0.00000000      36.65991275
W        4.77970388       1.59323463      38.25306987
W        3.18646925      -0.00000000      39.84619085
W        4.77970388       1.59323463      41.43935736
W        3.18646925       0.00000000      43.03257552
W        4.77970388       1.59323463      44.62579059
W        3.18646925      -0.00000000      46.21898881
W        4.77970388       1.59323463      47.81217083
W        3.18646925       0.00000000      49.40531232
W        4.77970388       1.59323463      50.99841444
W        3.18646925       0.00000000      52.59156805
W        4.77970388       1.59323463      54.18474166
W        3.18646925       3.18646925       0.79657260
W        4.77970388       4.77970388       2.38974621
W        3.18646925       3.18646925       3.98289982
W        4.77970388       4.77970388       5.57600194
W        3.18646925       3.18646925       7.16914343
W        4.77970388       4.77970388       8.76232545
W        3.18646925       3.18646925      10.35552367
W        4.77970388       4.77970388      11.94873874
W        3.18646925       3.18646925      13.54195690
W        4.77970388       4.77970388      15.13512341
W        3.18646925       3.18646925      16.72824439
W        4.77970388       4.77970388      18.32140151
W        3.18646925       3.18646925      19.91456100
W        4.77970388       4.77970388      21.50772269
W        3.18646925       3.18646925      23.10091978
W        4.77970388       4.77970388      24.69409217
W        3.18646925       3.18646925      30.28722209
W        4.77970388       4.77970388      31.88039448
W        3.18646925       3.18646925      33.47359157
W        4.77970388       4.77970388      35.06675326
W        3.18646925       3.18646925      36.65991275
W        4.77970388       4.77970388      38.25306987
W        3.18646925       3.18646925      39.84619085
W        4.77970388       4.77970388      41.43935736
W        3.18646925       3.18646925      43.03257552
W        4.77970388       4.77970388      44.62579059
W        3.18646925       3.18646925      46.21898881
W        4.77970388       4.77970388      47.81217083
W        3.18646925       3.18646925      49.40531232
W        4.77970388       4.77970388      50.99841444
W        3.18646925       3.18646925      52.59156805
W        4.77970388       4.77970388      54.18474166
W        3.18646925       6.37293851       0.79657260
W        4.77970388       7.96617313       2.38974621
W        3.18646925       6.37293851       3.98289982
W        4.77970388       7.96617313       5.57600194
W        3.18646925       6.37293851       7.16914343
W        4.77970388       7.96617313       8.76232545
W        3.18646925       6.37293851      10.35552367
W        4.77970388       7.96617313      11.94873874
W        3.18646925       6.37293851      13.54195690
W        4.77970388       7.96617313      15.13512341
W        3.18646925       6.37293851      16.72824439
W        4.77970388       7.96617313      18.32140151
W        3.18646925       6.37293851      19.91456100
W        4.77970388       7.96617313      21.50772269
W        3.18646925       6.37293851      23.10091978
W        4.77970388       7.96617313      24.69409217
W        3.18646925       6.37293851      30.28722209
W        4.77970388       7.96617313      31.88039448
W        3.18646925       6.37293851      33.47359157
W        4.77970388       7.96617313      35.06675326
W        3.18646925       6.37293851      36.65991275
W        4.77970388       7.96617313      38.25306987
W        3.18646925       6.37293851      39.84619085
W        4.77970388       7.96617313      41.43935736
W        3.18646925       6.37293851      43.03257552
W        4.77970388       7.96617313      44.62579059
W        3.18646925       6.37293851      46.21898881
W        4.77970388       7.96617313      47.81217083
W        3.18646925       6.37293851      49.40531232
W        4.77970388       7.96617313      50.99841444
W        3.18646925       6.37293851      52.59156805
W        4.77970388       7.96617313      54.18474166
W        6.37293851       0.00000000       0.79657260
W        7.96617313       1.59323463       2.38974621
W        6.37293851       0.00000000       3.98289982
W        7.96617313       1.59323463       5.57600194
W        6.37293851       0.00000000       7.16914343
W        7.96617313       1.59323463       8.76232545
W        6.37293851      -0.00000000      10.35552367
W        7.96617313       1.59323463      11.94873874
W        6.37293851       0.00000000      13.54195690
W        7.96617313       1.59323463      15.13512341
W        6.37293851      -0.00000000      16.72824439
W        7.96617313       1.59323463      18.32140151
W        6.37293851      -0.00000000      19.91456100
W        7.96617313       1.59323463      21.50772269
W        6.37293851       0.00000000      23.10091978
W        7.96617313       1.59323463      24.69409217
W        6.37293851      -0.00000000      30.28722209
W        7.96617313       1.59323463      31.88039448
W        6.37293851       0.00000000      33.47359157
W        7.96617313       1.59323463      35.06675326
W        6.37293851      -0.00000000      36.65991275
W        7.96617313       1.59323463      38.25306987
W        6.37293851       0.00000000      39.84619085
W        7.96617313       1.59323463      41.43935736
W        6.37293851      -0.00000000      43.03257552
W        7.96617313       1.59323463      44.62579059
W        6.37293851      -0.00000000      46.21898881
W        7.96617313       1.59323463      47.81217083
W        6.37293851      -0.00000000      49.40531232
W        7.96617313       1.59323463      50.99841444
W        6.37293851       0.00000000      52.59156805
W        7.96617313       1.59323463      54.18474166
W        6.37293851       3.18646925       0.79657260
W        7.96617313       4.77970388       2.38974621
W        6.37293851       3.18646925       3.98289982
W        7.96617313       4.77970388       5.57600194
W        6.37293851       3.18646925       7.16914343
W        7.96617313       4.77970388       8.76232545
W        6.37293851       3.18646925      10.35552367
W        7.96617313       4.77970388      11.94873874
W        6.37293851       3.18646925      13.54195690
W        7.96617313       4.77970388      15.13512341
W        6.37293851       3.18646925      16.72824439
W        7.96617313       4.77970388      18.32140151
W        6.37293851       3.18646925      19.91456100
W        7.96617313       4.77970388      21.50772269
W        6.37293851       3.18646925      23.10091978
W        7.96617313       4.77970388      24.69409217
W        6.37293851       3.18646925      30.28722209
W        7.96617313       4.77970388      31.88039448
W        6.37293851       3.18646925      33.47359157
W        7.96617313       4.77970388      35.06675326
W        6.37293851       3.18646925      36.65991275
W        7.96617313       4.77970388      38.25306987
W        6.37293851       3.18646925      39.84619085
W        7.96617313       4.77970388      41.43935736
W        6.37293851       3.18646925      43.03257552
W        7.96617313       4.77970388      44.62579059
W        6.37293851       3.18646925      46.21898881
W        7.96617313       4.77970388      47.81217083
W        6.37293851       3.18646925      49.40531232
W        7.96617313       4.77970388      50.99841444
W        6.37293851       3.18646925      52.59156805
W        7.96617313       4.77970388      54.18474166
W        6.37293851       6.37293851       0.79657260
W        7.96617313       7.96617313       2.38974621
W        6.37293851       6.37293851       3.98289982
W        7.96617313       7.96617313       5.57600194
W        6.37293851       6.37293851       7.16914343
W        7.96617313       7.96617313       8.76232545
W        6.37293851       6.37293851      10.35552367
W        7.96617313       7.96617313      11.94873874
W        6.37293851       6.37293851      13.54195690
W        7.96617313       7.96617313      15.13512341
W        6.37293851       6.37293851      16.72824439
W        7.96617313       7.96617313      18.32140151
W        6.37293851       6.37293851      19.91456100
W        7.96617313       7.96617313      21.50772269
W        6.37293851       6.37293851      23.10091978
W        7.96617313       7.96617313      24.69409217
W        6.37293851       6.37293851      30.28722209
W        7.96617313       7.96617313      31.88039448
W        6.37293851       6.37293851      33.47359157
W        7.96617313       7.96617313      35.06675326
W        6.37293851       6.37293851      36.65991275
W        7.96617313       7.96617313      38.25306987
W        6.37293851       6.37293851      39.84619085
W        7.96617313       7.96617313      41.43935736
W        6.37293851       6.37293851      43.03257552
W        7.96617313       7.96617313      44.62579059
W        6.37293851       6.37293851      46.21898881
W        7.96617313       7.96617313      47.81217083
W        6.37293851       6.37293851      49.40531232
W        7.96617313       7.96617313      50.99841444
W        6.37293851       6.37293851      52.59156805
W        7.96617313       7.96617313      54.18474166
